CO dimer in a box                       
   1.00000000000000     
     8.000000    0.000000    0.000000
     0.000000    8.000000    0.000000
     0.000000    0.000000    8.000000
   O    C 
     1     1
Direct
 -0.000000  0.000000 -0.001634
  0.000000 -0.000000  0.141634
 
   80   80   80
 0.41309097157E+04 0.39940782919E+04 0.35831090662E+04 0.29319987952E+04 0.21575074196E+04
 0.14308781762E+04 0.88169412307E+03 0.53087148012E+03 0.31729906170E+03 0.19009684166E+03
 0.45750358149E+00 0.21053216187E-01 -.44576773293E+00 -.38379256132E-01 0.46251452499E+00
 0.88768603820E-01 -.44288124754E+00 -.99851698964E-01 0.46891425865E+00 0.16930152175E+00
 -.41573916258E+00 -.12715865680E+00 0.52040414414E+00 0.30194800844E+00 -.33149247246E+00
 -.67523073279E-01 0.73933552320E+00 0.72091222934E+00 0.16788409601E+00 0.55704608518E+00
 0.17599154881E+01 0.23673797788E+01 0.26276420727E+01 0.42747159313E+01 0.74810646597E+01
 0.11071035209E+02 0.16068746084E+02 0.25926140177E+02 0.43004277288E+02 0.68709637539E+02
 0.10872746019E+03 0.17650355336E+03 0.29361049058E+03 0.49060703188E+03 0.81328350584E+03
 0.13244384383E+04 0.20195088893E+04 0.27896896383E+04 0.34694764801E+04 0.39211985971E+04
augmentation occupancies   1  33
  0.5485716E+00  0.9924629E-01 -0.2189603E-30 -0.5188976E-01  0.2189603E-30
 -0.4142057E-30  0.4959266E-01  0.4142029E-30  0.1816184E-01 -0.1965503E-30
  0.1131313E+00  0.1965498E-30  0.2507380E-31  0.3420119E-01 -0.2507378E-31
  0.1325598E+01  0.0000000E+00  0.1229783E-30  0.8078874E-01 -0.1229783E-30
  0.6047868E-17  0.3133647E+00 -0.8510961E-32  0.2981597E-30  0.6814673E-01
 -0.2981619E-30  0.1551797E-17  0.2573929E-01  0.0000000E+00  0.1047388E-31
  0.1283945E-01 -0.1047388E-31 -0.9634618E-19
augmentation occupancies   2  33
  0.5251196E+00 -0.3828153E+00 -0.4457427E-30  0.9836069E-01  0.4457427E-30
 -0.2117109E-29 -0.6360936E-01  0.2117109E-29  0.3531204E+00  0.9073261E-30
  0.5077016E+00 -0.9073258E-30 -0.1751791E-29  0.1725052E+00  0.1751791E-29
  0.7618922E+00  0.0000000E+00  0.2083979E-30  0.2278244E+00 -0.2083979E-30
 -0.6091896E-19  0.2483737E+00 -0.1336923E-31  0.4570487E-30  0.8790127E-01
 -0.4570488E-30 -0.2251979E-18  0.2919373E-01  0.0000000E+00  0.2134747E-30
  0.1617900E-01 -0.2134746E-30  0.5816751E-23
