   2   2   0   0
  0.2560000E+03  0.8000000E-09  0.8000000E-09  0.8000000E-09  0.5000000E-15
  1.000000000000000E-004
  CAR 
 CO dimer in a box                       
      3.68785621    -30.94374158  301     -7.85420599      1.00000000
    -30.944  0.0000E+00  0.0000E+00
    -30.828  0.0000E+00  0.0000E+00
    -30.713  0.0000E+00  0.0000E+00
    -30.597  0.0000E+00  0.0000E+00
    -30.482  0.0000E+00  0.0000E+00
    -30.367  0.0000E+00  0.0000E+00
    -30.251  0.0000E+00  0.0000E+00
    -30.136  0.0000E+00  0.0000E+00
    -30.020  0.4674E-13  0.5396E-14
    -29.905  0.1863E-10  0.2156E-11
    -29.789  0.3862E-08  0.4480E-09
    -29.674  0.4169E-06  0.4857E-07
    -29.558  0.2351E-04  0.2762E-05
    -29.443  0.6945E-03  0.8293E-04
    -29.328  0.1079E-01  0.1328E-02
    -29.212  0.8845E-01  0.1154E-01
    -29.097  0.3841E+00  0.5587E-01
    -28.981  0.8858E+00  0.1581E+00
    -28.866  0.1087E+01  0.2836E+00
    -28.750  0.7106E+00  0.3657E+00
    -28.635  0.2470E+00  0.3942E+00
    -28.520  0.4558E-01  0.3995E+00
    -28.404  0.4448E-02  0.4000E+00
    -28.289  0.2288E-03  0.4000E+00
    -28.173  0.6181E-05  0.4000E+00
    -28.058  0.8738E-07  0.4000E+00
    -27.942  0.6446E-09  0.4000E+00
    -27.827  0.2475E-11  0.4000E+00
    -27.711  0.5001E-14  0.4000E+00
    -27.596  0.0000E+00  0.4000E+00
    -27.481  0.0000E+00  0.4000E+00
    -27.365  0.0000E+00  0.4000E+00
    -27.250  0.0000E+00  0.4000E+00
    -27.134  0.0000E+00  0.4000E+00
    -27.019  0.0000E+00  0.4000E+00
    -26.903  0.0000E+00  0.4000E+00
    -26.788  0.0000E+00  0.4000E+00
    -26.673  0.0000E+00  0.4000E+00
    -26.557  0.0000E+00  0.4000E+00
    -26.442  0.0000E+00  0.4000E+00
    -26.326  0.0000E+00  0.4000E+00
    -26.211  0.0000E+00  0.4000E+00
    -26.095  0.0000E+00  0.4000E+00
    -25.980  0.0000E+00  0.4000E+00
    -25.864  0.0000E+00  0.4000E+00
    -25.749  0.0000E+00  0.4000E+00
    -25.634  0.0000E+00  0.4000E+00
    -25.518  0.0000E+00  0.4000E+00
    -25.403  0.0000E+00  0.4000E+00
    -25.287  0.0000E+00  0.4000E+00
    -25.172  0.0000E+00  0.4000E+00
    -25.056  0.0000E+00  0.4000E+00
    -24.941  0.0000E+00  0.4000E+00
    -24.825  0.0000E+00  0.4000E+00
    -24.710  0.0000E+00  0.4000E+00
    -24.595  0.0000E+00  0.4000E+00
    -24.479  0.0000E+00  0.4000E+00
    -24.364  0.0000E+00  0.4000E+00
    -24.248  0.0000E+00  0.4000E+00
    -24.133  0.0000E+00  0.4000E+00
    -24.017  0.0000E+00  0.4000E+00
    -23.902  0.0000E+00  0.4000E+00
    -23.787  0.0000E+00  0.4000E+00
    -23.671  0.0000E+00  0.4000E+00
    -23.556  0.0000E+00  0.4000E+00
    -23.440  0.0000E+00  0.4000E+00
    -23.325  0.0000E+00  0.4000E+00
    -23.209  0.0000E+00  0.4000E+00
    -23.094  0.0000E+00  0.4000E+00
    -22.978  0.0000E+00  0.4000E+00
    -22.863  0.0000E+00  0.4000E+00
    -22.748  0.0000E+00  0.4000E+00
    -22.632  0.0000E+00  0.4000E+00
    -22.517  0.0000E+00  0.4000E+00
    -22.401  0.0000E+00  0.4000E+00
    -22.286  0.0000E+00  0.4000E+00
    -22.170  0.0000E+00  0.4000E+00
    -22.055  0.0000E+00  0.4000E+00
    -21.940  0.0000E+00  0.4000E+00
    -21.824  0.0000E+00  0.4000E+00
    -21.709  0.0000E+00  0.4000E+00
    -21.593  0.0000E+00  0.4000E+00
    -21.478  0.0000E+00  0.4000E+00
    -21.362  0.0000E+00  0.4000E+00
    -21.247  0.0000E+00  0.4000E+00
    -21.131  0.0000E+00  0.4000E+00
    -21.016  0.0000E+00  0.4000E+00
    -20.901  0.0000E+00  0.4000E+00
    -20.785  0.0000E+00  0.4000E+00
    -20.670  0.0000E+00  0.4000E+00
    -20.554  0.0000E+00  0.4000E+00
    -20.439  0.0000E+00  0.4000E+00
    -20.323  0.0000E+00  0.4000E+00
    -20.208  0.0000E+00  0.4000E+00
    -20.093  0.0000E+00  0.4000E+00
    -19.977  0.0000E+00  0.4000E+00
    -19.862  0.0000E+00  0.4000E+00
    -19.746  0.0000E+00  0.4000E+00
    -19.631  0.0000E+00  0.4000E+00
    -19.515  0.0000E+00  0.4000E+00
    -19.400  0.0000E+00  0.4000E+00
    -19.284  0.0000E+00  0.4000E+00
    -19.169  0.0000E+00  0.4000E+00
    -19.054  0.0000E+00  0.4000E+00
    -18.938  0.0000E+00  0.4000E+00
    -18.823  0.0000E+00  0.4000E+00
    -18.707  0.0000E+00  0.4000E+00
    -18.592  0.0000E+00  0.4000E+00
    -18.476  0.0000E+00  0.4000E+00
    -18.361  0.0000E+00  0.4000E+00
    -18.245  0.0000E+00  0.4000E+00
    -18.130  0.0000E+00  0.4000E+00
    -18.015  0.0000E+00  0.4000E+00
    -17.899  0.0000E+00  0.4000E+00
    -17.784  0.0000E+00  0.4000E+00
    -17.668  0.0000E+00  0.4000E+00
    -17.553  0.0000E+00  0.4000E+00
    -17.437  0.0000E+00  0.4000E+00
    -17.322  0.0000E+00  0.4000E+00
    -17.207  0.0000E+00  0.4000E+00
    -17.091  0.0000E+00  0.4000E+00
    -16.976  0.0000E+00  0.4000E+00
    -16.860  0.0000E+00  0.4000E+00
    -16.745  0.0000E+00  0.4000E+00
    -16.629  0.0000E+00  0.4000E+00
    -16.514  0.0000E+00  0.4000E+00
    -16.398  0.0000E+00  0.4000E+00
    -16.283  0.0000E+00  0.4000E+00
    -16.168  0.0000E+00  0.4000E+00
    -16.052  0.0000E+00  0.4000E+00
    -15.937  0.0000E+00  0.4000E+00
    -15.821  0.0000E+00  0.4000E+00
    -15.706  0.0000E+00  0.4000E+00
    -15.590  0.0000E+00  0.4000E+00
    -15.475  0.0000E+00  0.4000E+00
    -15.360  0.0000E+00  0.4000E+00
    -15.244  0.0000E+00  0.4000E+00
    -15.129  0.0000E+00  0.4000E+00
    -15.013  0.0000E+00  0.4000E+00
    -14.898  0.1923E-14  0.4000E+00
    -14.782  0.1081E-11  0.4000E+00
    -14.667  0.3084E-09  0.4000E+00
    -14.551  0.4580E-07  0.4000E+00
    -14.436  0.3547E-05  0.4000E+00
    -14.321  0.1437E-03  0.4000E+00
    -14.205  0.3055E-02  0.4004E+00
    -14.090  0.3423E-01  0.4043E+00
    -13.974  0.2027E+00  0.4277E+00
    -13.859  0.6369E+00  0.5012E+00
    -13.743  0.1064E+01  0.6241E+00
    -13.628  0.9467E+00  0.7334E+00
    -13.513  0.4482E+00  0.7851E+00
    -13.397  0.1128E+00  0.7981E+00
    -13.282  0.1504E-01  0.7999E+00
    -13.166  0.1058E-02  0.8000E+00
    -13.051  0.3920E-04  0.8000E+00
    -12.935  0.7609E-06  0.8000E+00
    -12.820  0.7718E-08  0.8000E+00
    -12.704  0.4079E-10  0.8000E+00
    -12.589  0.1139E-12  0.8000E+00
    -12.474  0.8583E-12  0.8000E+00
    -12.358  0.2708E-09  0.8000E+00
    -12.243  0.4443E-07  0.8000E+00
    -12.127  0.3800E-05  0.8000E+00
    -12.012  0.1700E-03  0.8000E+00
    -11.896  0.3989E-02  0.8005E+00
    -11.781  0.4928E-01  0.8062E+00
    -11.665  0.3217E+00  0.8433E+00
    -11.550  0.1114E+01  0.9719E+00
    -11.435  0.2050E+01  0.1208E+01
    -11.319  0.2008E+01  0.1440E+01
    -11.204  0.1047E+01  0.1561E+01
    -11.088  0.2903E+00  0.1595E+01
    -10.973  0.4267E-01  0.1600E+01
    -10.857  0.3313E-02  0.1600E+01
    -10.742  0.1354E-03  0.1600E+01
    -10.627  0.2903E-05  0.1600E+01
    -10.511  0.3253E-07  0.1600E+01
    -10.396  0.1900E-09  0.1600E+01
    -10.280  0.5778E-12  0.1600E+01
    -10.165  0.7694E-15  0.1600E+01
    -10.049  0.0000E+00  0.1600E+01
     -9.934  0.3847E-15  0.1600E+01
     -9.818  0.2714E-12  0.1600E+01
     -9.703  0.8994E-10  0.1600E+01
     -9.588  0.1550E-07  0.1600E+01
     -9.472  0.1392E-05  0.1600E+01
     -9.357  0.6536E-04  0.1600E+01
     -9.241  0.1610E-02  0.1600E+01
     -9.126  0.2086E-01  0.1603E+01
     -9.010  0.1429E+00  0.1619E+01
     -8.895  0.5186E+00  0.1679E+01
     -8.780  0.1001E+01  0.1794E+01
     -8.664  0.1028E+01  0.1913E+01
     -8.549  0.5620E+00  0.1978E+01
     -8.433  0.1634E+00  0.1997E+01
     -8.318  0.2519E-01  0.2000E+01
     -8.202  0.2052E-02  0.2000E+01
     -8.087  0.8800E-04  0.2000E+01
     -7.971  0.1980E-05  0.2000E+01
     -7.856  0.2330E-07  0.2000E+01
     -7.741  0.1429E-09  0.2000E+01
     -7.625  0.4563E-12  0.2000E+01
     -7.510  0.7694E-15  0.2000E+01
     -7.394  0.0000E+00  0.2000E+01
     -7.279  0.0000E+00  0.2000E+01
     -7.163  0.0000E+00  0.2000E+01
     -7.048  0.0000E+00  0.2000E+01
     -6.933  0.0000E+00  0.2000E+01
     -6.817  0.0000E+00  0.2000E+01
     -6.702  0.0000E+00  0.2000E+01
     -6.586  0.0000E+00  0.2000E+01
     -6.471  0.0000E+00  0.2000E+01
     -6.355  0.0000E+00  0.2000E+01
     -6.240  0.0000E+00  0.2000E+01
     -6.124  0.0000E+00  0.2000E+01
     -6.009  0.0000E+00  0.2000E+01
     -5.894  0.0000E+00  0.2000E+01
     -5.778  0.0000E+00  0.2000E+01
     -5.663  0.0000E+00  0.2000E+01
     -5.547  0.0000E+00  0.2000E+01
     -5.432  0.0000E+00  0.2000E+01
     -5.316  0.0000E+00  0.2000E+01
     -5.201  0.0000E+00  0.2000E+01
     -5.085  0.0000E+00  0.2000E+01
     -4.970  0.0000E+00  0.2000E+01
     -4.855  0.0000E+00  0.2000E+01
     -4.739  0.0000E+00  0.2000E+01
     -4.624  0.0000E+00  0.2000E+01
     -4.508  0.0000E+00  0.2000E+01
     -4.393  0.0000E+00  0.2000E+01
     -4.277  0.0000E+00  0.2000E+01
     -4.162  0.0000E+00  0.2000E+01
     -4.047  0.0000E+00  0.2000E+01
     -3.931  0.0000E+00  0.2000E+01
     -3.816  0.0000E+00  0.2000E+01
     -3.700  0.0000E+00  0.2000E+01
     -3.585  0.0000E+00  0.2000E+01
     -3.469  0.0000E+00  0.2000E+01
     -3.354  0.0000E+00  0.2000E+01
     -3.238  0.0000E+00  0.2000E+01
     -3.123  0.0000E+00  0.2000E+01
     -3.008  0.5386E-14  0.2000E+01
     -2.892  0.2913E-11  0.2000E+01
     -2.777  0.8044E-09  0.2000E+01
     -2.661  0.1156E-06  0.2000E+01
     -2.546  0.8667E-05  0.2000E+01
     -2.430  0.3400E-03  0.2000E+01
     -2.315  0.7000E-02  0.2001E+01
     -2.200  0.7595E-01  0.2010E+01
     -2.084  0.4358E+00  0.2060E+01
     -1.969  0.1327E+01  0.2213E+01
     -1.853  0.2148E+01  0.2461E+01
     -1.738  0.1851E+01  0.2675E+01
     -1.622  0.8494E+00  0.2773E+01
     -1.507  0.2071E+00  0.2797E+01
     -1.391  0.2674E-01  0.2800E+01
     -1.276  0.1823E-02  0.2800E+01
     -1.161  0.6538E-04  0.2800E+01
     -1.045  0.1610E-05  0.2800E+01
     -0.930  0.2180E-04  0.2800E+01
     -0.814  0.6521E-03  0.2800E+01
     -0.699  0.1026E-01  0.2801E+01
     -0.583  0.8526E-01  0.2811E+01
     -0.468  0.3750E+00  0.2854E+01
     -0.352  0.8763E+00  0.2956E+01
     -0.237  0.1090E+01  0.3081E+01
     -0.122  0.7214E+00  0.3165E+01
     -0.006  0.2541E+00  0.3194E+01
      0.109  0.4749E-01  0.3199E+01
      0.225  0.4696E-02  0.3200E+01
      0.340  0.2447E-03  0.3200E+01
      0.456  0.6699E-05  0.3200E+01
      0.571  0.9598E-07  0.3200E+01
      0.686  0.7200E-09  0.3200E+01
      0.802  0.6474E-09  0.3200E+01
      0.917  0.8738E-07  0.3200E+01
      1.033  0.6181E-05  0.3200E+01
      1.148  0.2288E-03  0.3200E+01
      1.264  0.4448E-02  0.3201E+01
      1.379  0.4558E-01  0.3206E+01
      1.495  0.2470E+00  0.3234E+01
      1.610  0.7106E+00  0.3316E+01
      1.725  0.1087E+01  0.3442E+01
      1.841  0.8858E+00  0.3544E+01
      1.956  0.3841E+00  0.3588E+01
      2.072  0.8845E-01  0.3599E+01
      2.187  0.1079E-01  0.3600E+01
      2.303  0.6945E-03  0.3600E+01
      2.418  0.2351E-04  0.3600E+01
      2.533  0.4169E-06  0.3600E+01
      2.649  0.3862E-08  0.3600E+01
      2.764  0.1863E-10  0.3600E+01
      2.880  0.4693E-13  0.3600E+01
      2.995  0.0000E+00  0.3600E+01
      3.111  0.0000E+00  0.3600E+01
      3.226  0.0000E+00  0.3600E+01
      3.342  0.0000E+00  0.3600E+01
      3.457  0.0000E+00  0.3600E+01
      3.572  0.0000E+00  0.3600E+01
      3.688  0.0000E+00  0.3600E+01
