       N       E                     dE             d eps       ncg     rms          rms(c)
DAV:   1     0.678412444960E+02    0.67841E+02   -0.20290E+03    16   0.439E+02
DAV:   2    -0.649766110713E+01   -0.74339E+02   -0.74287E+02    32   0.105E+02
DAV:   3    -0.160712071696E+02   -0.95735E+01   -0.95735E+01    16   0.659E+01
DAV:   4    -0.162495805944E+02   -0.17837E+00   -0.17837E+00    24   0.966E+00
DAV:   5    -0.162497773652E+02   -0.19677E-03   -0.19677E-03    32   0.298E-01    0.769E+00
DAV:   6    -0.143898364655E+02    0.18599E+01   -0.92914E+00    16   0.214E+01    0.303E+00
DAV:   7    -0.142830351190E+02    0.10680E+00   -0.10114E-01    32   0.267E+00    0.189E+00
DAV:   8    -0.142022673060E+02    0.80768E-01   -0.73367E-02    24   0.263E+00    0.223E-01
DAV:   9    -0.142073055927E+02   -0.50383E-02   -0.36781E-03    24   0.384E-01    0.133E-01
DAV:  10    -0.142155518404E+02   -0.82462E-02   -0.39255E-03    16   0.538E-01    0.653E-02
DAV:  11    -0.142230321818E+02   -0.74803E-02   -0.52327E-03    16   0.403E-01    0.984E-02
DAV:  12    -0.142237904243E+02   -0.75824E-03   -0.11727E-03    32   0.228E-01    0.254E-02
DAV:  13    -0.142248739755E+02   -0.10836E-02   -0.15987E-04    24   0.893E-02    0.996E-03
DAV:  14    -0.142250622945E+02   -0.18832E-03   -0.12758E-05    32   0.212E-02    0.460E-03
DAV:  15    -0.142251907083E+02   -0.12841E-03   -0.13132E-05    32   0.192E-02    0.699E-04
DAV:  16    -0.142251992491E+02   -0.85408E-05   -0.73953E-07    32   0.509E-03    0.101E-03
DAV:  17    -0.142252024723E+02   -0.32232E-05   -0.48048E-07    16   0.396E-03    0.208E-04
DAV:  18    -0.142252036258E+02   -0.11535E-05   -0.74378E-08    16   0.164E-03    0.168E-04
DAV:  19    -0.142252038521E+02   -0.22631E-06   -0.81445E-09    24   0.500E-04    0.751E-05
DAV:  20    -0.142252039983E+02   -0.14621E-06   -0.23874E-09    16   0.341E-04    0.180E-05
DAV:  21    -0.142252040409E+02   -0.42549E-07   -0.43816E-10    16   0.141E-04    0.516E-06
DAV:  22    -0.142252040425E+02   -0.16429E-08    0.19913E-11    32   0.271E-05
   1 F= -.14225204E+02 E0= -.14225204E+02  d E =-.518825E-11
 Found     6 degrees of freedom:
       N       E                     dE             d eps       ncg     rms          rms(c)
DAV:   1    -0.142201554562E+02    0.50486E-02   -0.12890E+00    16   0.117E+01    0.278E-01
DAV:   2    -0.142199647649E+02    0.19069E-03   -0.14752E-02    24   0.114E+00    0.113E-01
DAV:   3    -0.142198430535E+02    0.12171E-03   -0.26940E-04    16   0.164E-01    0.549E-02
DAV:   4    -0.142198825334E+02   -0.39480E-04   -0.15228E-04    16   0.124E-01    0.865E-03
DAV:   5    -0.142198930631E+02   -0.10530E-04   -0.11238E-05    32   0.306E-02    0.337E-03
DAV:   6    -0.142199006046E+02   -0.75416E-05   -0.87424E-07    16   0.806E-03    0.114E-03
DAV:   7    -0.142199107900E+02   -0.10185E-04   -0.82462E-07    32   0.568E-03    0.101E-03
DAV:   8    -0.142199178713E+02   -0.70813E-05   -0.72247E-07    16   0.465E-03    0.671E-04
DAV:   9    -0.142199205421E+02   -0.26707E-05   -0.10425E-07    32   0.169E-03    0.248E-04
DAV:  10    -0.142199226375E+02   -0.20954E-05   -0.90895E-08    16   0.151E-03    0.154E-04
DAV:  11    -0.142199230849E+02   -0.44744E-06   -0.16394E-08    24   0.782E-04    0.745E-05
DAV:  12    -0.142199231482E+02   -0.63285E-07   -0.19595E-09    16   0.303E-04    0.130E-05
DAV:  13    -0.142199231648E+02   -0.16600E-07   -0.37403E-10    24   0.115E-04    0.106E-05
DAV:  14    -0.142199231657E+02   -0.93632E-09   -0.40110E-11    16   0.403E-05
   2 F= -.14219923E+02 E0= -.14219923E+02  d E =-.782603E-11
       N       E                     dE             d eps       ncg     rms          rms(c)
DAV:   1    -0.142219308525E+02   -0.20077E-02   -0.51120E+00    16   0.232E+01    0.583E-01
DAV:   2    -0.142215352762E+02    0.39558E-03   -0.72585E-02    24   0.248E+00    0.229E-01
DAV:   3    -0.142210261995E+02    0.50908E-03   -0.10738E-03    16   0.316E-01    0.125E-01
DAV:   4    -0.142211587822E+02   -0.13258E-03   -0.91598E-04    24   0.299E-01    0.190E-02
DAV:   5    -0.142212140946E+02   -0.55312E-04   -0.12323E-04    16   0.104E-01    0.109E-02
DAV:   6    -0.142212252566E+02   -0.11162E-04   -0.11622E-05    24   0.274E-02    0.303E-03
DAV:   7    -0.142212435715E+02   -0.18315E-04   -0.17898E-06    24   0.864E-03    0.144E-03
DAV:   8    -0.142212724180E+02   -0.28847E-04   -0.38680E-06    24   0.955E-03    0.892E-04
DAV:   9    -0.142212802644E+02   -0.78464E-05   -0.71341E-07    16   0.446E-03    0.857E-04
DAV:  10    -0.142212851226E+02   -0.48581E-05   -0.57356E-07    16   0.424E-03    0.434E-04
DAV:  11    -0.142212859260E+02   -0.80347E-06   -0.40026E-08    32   0.128E-03    0.141E-04
DAV:  12    -0.142212864980E+02   -0.57201E-06   -0.24983E-08    16   0.878E-04    0.601E-05
DAV:  13    -0.142212865850E+02   -0.86920E-07   -0.18856E-09    24   0.248E-04    0.202E-05
DAV:  14    -0.142212865942E+02   -0.92306E-08   -0.12060E-10    16   0.683E-05
   3 F= -.14221287E+02 E0= -.14221287E+02  d E =-.346169E-11
       N       E                     dE             d eps       ncg     rms          rms(c)
DAV:   1    -0.142178043810E+02    0.34822E-02   -0.25742E+00    16   0.167E+01    0.347E-01
DAV:   2    -0.142183502332E+02   -0.54585E-03   -0.30134E-02    24   0.179E+00    0.179E-01
DAV:   3    -0.142179933293E+02    0.35690E-03   -0.13117E-03    16   0.361E-01    0.658E-02
DAV:   4    -0.142180798455E+02   -0.86516E-04   -0.31315E-04    32   0.171E-01    0.171E-02
DAV:   5    -0.142181173413E+02   -0.37496E-04   -0.10369E-05    16   0.328E-02    0.558E-03
DAV:   6    -0.142181355897E+02   -0.18248E-04   -0.20752E-06    16   0.136E-02    0.179E-03
DAV:   7    -0.142181561555E+02   -0.20566E-04   -0.23426E-06    24   0.105E-02    0.211E-03
DAV:   8    -0.142181653708E+02   -0.92154E-05   -0.65943E-07    16   0.518E-03    0.986E-04
DAV:   9    -0.142181744509E+02   -0.90801E-05   -0.74177E-07    16   0.476E-03    0.394E-04
DAV:  10    -0.142181772342E+02   -0.27833E-05   -0.11676E-07    24   0.189E-03    0.200E-04
DAV:  11    -0.142181782513E+02   -0.10171E-05   -0.26304E-08    16   0.812E-04    0.703E-05
DAV:  12    -0.142181785470E+02   -0.29573E-06   -0.77847E-09    16   0.474E-04    0.343E-05
DAV:  13    -0.142181785846E+02   -0.37586E-07   -0.64507E-10    24   0.148E-04    0.164E-05
DAV:  14    -0.142181785888E+02   -0.42382E-08   -0.30607E-11    16   0.479E-05
   4 F= -.14218179E+02 E0= -.14218179E+02  d E =-.530004E-11
       N       E                     dE             d eps       ncg     rms          rms(c)
DAV:   1    -0.142174848397E+02    0.69374E-03   -0.51630E+00    16   0.233E+01    0.453E-01
DAV:   2    -0.142186692095E+02   -0.11844E-02   -0.52051E-02    16   0.229E+00    0.260E-01
DAV:   3    -0.142178189325E+02    0.85028E-03   -0.50544E-03    16   0.741E-01    0.495E-02
DAV:   4    -0.142179607800E+02   -0.14185E-03   -0.66821E-04    24   0.219E-01    0.231E-02
DAV:   5    -0.142180301285E+02   -0.69349E-04   -0.76908E-06    16   0.292E-02    0.108E-02
DAV:   6    -0.142180916997E+02   -0.61571E-04   -0.59980E-06    16   0.215E-02    0.180E-03
DAV:   7    -0.142181474153E+02   -0.55716E-04   -0.59993E-06    16   0.117E-02    0.979E-04
DAV:   8    -0.142181662697E+02   -0.18854E-04   -0.18849E-06    24   0.729E-03    0.604E-04
DAV:   9    -0.142181739429E+02   -0.76732E-05   -0.41358E-07    16   0.343E-03    0.222E-04
DAV:  10    -0.142181770327E+02   -0.30898E-05   -0.11139E-07    16   0.164E-03    0.143E-04
DAV:  11    -0.142181783948E+02   -0.13621E-05   -0.51475E-08    16   0.110E-03    0.491E-05
DAV:  12    -0.142181785274E+02   -0.13266E-06   -0.23215E-09    16   0.268E-04    0.229E-05
DAV:  13    -0.142181785830E+02   -0.55543E-07   -0.94282E-10    16   0.175E-04    0.710E-06
DAV:  14    -0.142181785890E+02   -0.60131E-08   -0.85389E-11    24   0.530E-05
   5 F= -.14218179E+02 E0= -.14218179E+02  d E =-.533865E-11
       N       E                     dE             d eps       ncg     rms          rms(c)
DAV:   1    -0.142241428031E+02   -0.59642E-02   -0.26247E+00    16   0.167E+01    0.266E-01
DAV:   2    -0.142254078437E+02   -0.12650E-02   -0.25169E-02    24   0.162E+00    0.139E-01
DAV:   3    -0.142251871516E+02    0.22069E-03   -0.11037E-03    32   0.345E-01    0.409E-02
DAV:   4    -0.142251525840E+02    0.34568E-04   -0.34924E-04    32   0.184E-01    0.105E-02
DAV:   5    -0.142251607527E+02   -0.81687E-05   -0.24725E-05    16   0.523E-02    0.415E-03
DAV:   6    -0.142251791998E+02   -0.18447E-04   -0.10782E-05    32   0.286E-02    0.277E-03
DAV:   7    -0.142252034265E+02   -0.24227E-04   -0.30459E-06    32   0.123E-02    0.114E-03
DAV:   8    -0.142252222461E+02   -0.18820E-04   -0.21449E-06    32   0.822E-03    0.773E-04
DAV:   9    -0.142252319998E+02   -0.97538E-05   -0.74199E-07    24   0.421E-03    0.265E-04
DAV:  10    -0.142252362731E+02   -0.42733E-05   -0.30579E-07    24   0.256E-03    0.122E-04
DAV:  11    -0.142252378711E+02   -0.15980E-05   -0.79323E-08    24   0.134E-03    0.421E-05
DAV:  12    -0.142252380060E+02   -0.13487E-06   -0.22930E-09    32   0.274E-04    0.210E-05
DAV:  13    -0.142252380632E+02   -0.57198E-07   -0.12001E-09    16   0.202E-04    0.993E-06
DAV:  14    -0.142252380668E+02   -0.36135E-08   -0.62492E-11    32   0.436E-05
   6 F= -.14225238E+02 E0= -.14225238E+02  d E =-.514435E-11
       N       E                     dE             d eps       ncg     rms          rms(c)
DAV:   1    -0.142211756800E+02    0.40624E-02   -0.53303E+00    16   0.232E+01    0.360E-01
DAV:   2    -0.142250918967E+02   -0.39162E-02   -0.53966E-02    32   0.206E+00    0.178E-01
DAV:   3    -0.142248783358E+02    0.21356E-03   -0.73986E-04    24   0.273E-01    0.918E-02
DAV:   4    -0.142250217738E+02   -0.14344E-03   -0.65856E-04    24   0.259E-01    0.177E-02
DAV:   5    -0.142250602610E+02   -0.38487E-04   -0.71518E-05    16   0.743E-02    0.126E-02
DAV:   6    -0.142251134942E+02   -0.53233E-04   -0.11430E-05    16   0.300E-02    0.537E-03
DAV:   7    -0.142251524729E+02   -0.38979E-04   -0.34656E-06    32   0.136E-02    0.315E-03
DAV:   8    -0.142252149027E+02   -0.62430E-04   -0.13684E-05    32   0.180E-02    0.944E-04
DAV:   9    -0.142252264153E+02   -0.11513E-04   -0.88960E-07    24   0.502E-03    0.772E-04
DAV:  10    -0.142252364421E+02   -0.10027E-04   -0.12806E-06    32   0.495E-03    0.140E-04
DAV:  11    -0.142252373407E+02   -0.89859E-06   -0.28070E-08    16   0.961E-04    0.902E-05
DAV:  12    -0.142252380143E+02   -0.67358E-06   -0.38598E-08    32   0.815E-04    0.439E-05
DAV:  13    -0.142252380493E+02   -0.34998E-07   -0.43483E-10    24   0.129E-04    0.111E-05
DAV:  14    -0.142252380663E+02   -0.16979E-07   -0.28427E-10    16   0.888E-05    0.667E-06
DAV:  15    -0.142252380677E+02   -0.14215E-08   -0.17160E-11    32   0.217E-05
   7 F= -.14225238E+02 E0= -.14225238E+02  d E =-.513769E-11
       N       E                     dE             d eps       ncg     rms          rms(c)
DAV:   1    -0.142218703758E+02    0.33677E-02   -0.14037E+00    16   0.121E+01    0.194E-01
DAV:   2    -0.142232575048E+02   -0.13871E-02   -0.20262E-02    32   0.126E+00    0.105E-01
DAV:   3    -0.142232654307E+02   -0.79259E-05   -0.14117E-04    32   0.122E-01    0.428E-02
DAV:   4    -0.142232580649E+02    0.73658E-05   -0.10873E-04    32   0.106E-01    0.564E-03
DAV:   5    -0.142232707680E+02   -0.12703E-04   -0.17535E-05    24   0.380E-02    0.326E-03
DAV:   6    -0.142232890058E+02   -0.18238E-04   -0.32490E-06    32   0.158E-02    0.171E-03
DAV:   7    -0.142233120685E+02   -0.23063E-04   -0.38360E-06    32   0.119E-02    0.201E-03
DAV:   8    -0.142233204906E+02   -0.84222E-05   -0.11440E-06    16   0.622E-03    0.432E-04
DAV:   9    -0.142233267890E+02   -0.62984E-05   -0.46704E-07    32   0.307E-03    0.359E-04
DAV:  10    -0.142233292740E+02   -0.24850E-05   -0.16132E-07    32   0.192E-03    0.168E-04
DAV:  11    -0.142233304913E+02   -0.12173E-05   -0.71958E-08    24   0.122E-03    0.615E-05
DAV:  12    -0.142233305607E+02   -0.69374E-07   -0.13807E-09    24   0.285E-04    0.264E-05
DAV:  13    -0.142233306320E+02   -0.71386E-07   -0.16304E-09    16   0.225E-04    0.171E-05
DAV:  14    -0.142233306368E+02   -0.47290E-08   -0.84928E-11    32   0.594E-05
   8 F= -.14223331E+02 E0= -.14223331E+02  d E =-.419206E-11
       N       E                     dE             d eps       ncg     rms          rms(c)
DAV:   1    -0.142231321959E+02    0.19844E-03   -0.31504E-01    16   0.522E+00    0.248E-01
DAV:   2    -0.142225436111E+02    0.58858E-03   -0.52753E-03    32   0.621E-01    0.126E-01
DAV:   3    -0.142225354692E+02    0.81419E-05   -0.23206E-04    16   0.145E-01    0.563E-02
DAV:   4    -0.142225600335E+02   -0.24564E-04   -0.73798E-05    32   0.844E-02    0.997E-03
DAV:   5    -0.142225767169E+02   -0.16683E-04   -0.14513E-05    24   0.293E-02    0.448E-03
DAV:   6    -0.142226059945E+02   -0.29278E-04   -0.45789E-06    24   0.151E-02    0.130E-03
DAV:   7    -0.142226241112E+02   -0.18117E-04   -0.11830E-06    32   0.606E-03    0.923E-04
DAV:   8    -0.142226400183E+02   -0.15907E-04   -0.13728E-06    32   0.602E-03    0.390E-04
DAV:   9    -0.142226467402E+02   -0.67219E-05   -0.43617E-07    32   0.308E-03    0.190E-04
DAV:  10    -0.142226487717E+02   -0.20315E-05   -0.79810E-08    32   0.133E-03    0.938E-05
DAV:  11    -0.142226496429E+02   -0.87126E-06   -0.38755E-08    16   0.918E-04    0.518E-05
DAV:  12    -0.142226497278E+02   -0.84866E-07   -0.26161E-09    32   0.278E-04    0.228E-05
DAV:  13    -0.142226497410E+02   -0.13246E-07   -0.34591E-10    16   0.115E-04    0.784E-06
DAV:  14    -0.142226497425E+02   -0.14301E-08   -0.10498E-11    32   0.435E-05
   9 F= -.14222650E+02 E0= -.14222650E+02  d E =-.642730E-11
       N       E                     dE             d eps       ncg     rms          rms(c)
DAV:   1    -0.142205488465E+02    0.21009E-02   -0.14225E-01    16   0.360E+00    0.106E-01
DAV:   2    -0.142206379143E+02   -0.89068E-04   -0.81197E-04    32   0.279E-01    0.680E-02
DAV:   3    -0.142206740715E+02   -0.36157E-04   -0.99986E-05    16   0.107E-01    0.887E-03
DAV:   4    -0.142206859598E+02   -0.11888E-04   -0.12068E-05    32   0.318E-02    0.569E-03
DAV:   5    -0.142207035014E+02   -0.17542E-04   -0.16901E-06    16   0.119E-02    0.262E-03
DAV:   6    -0.142207297276E+02   -0.26226E-04   -0.30930E-06    32   0.130E-02    0.132E-03
DAV:   7    -0.142207580625E+02   -0.28335E-04   -0.39193E-06    32   0.108E-02    0.594E-04
DAV:   8    -0.142207610177E+02   -0.29553E-05   -0.78570E-08    16   0.204E-03    0.330E-04
DAV:   9    -0.142207681340E+02   -0.71163E-05   -0.64450E-07    32   0.357E-03    0.159E-04
DAV:  10    -0.142207690986E+02   -0.96464E-06   -0.32351E-08    16   0.888E-04    0.787E-05
DAV:  11    -0.142207695269E+02   -0.42828E-06   -0.90046E-09    16   0.497E-04    0.313E-05
DAV:  12    -0.142207696969E+02   -0.17001E-06   -0.34018E-09    16   0.305E-04    0.163E-05
DAV:  13    -0.142207697221E+02   -0.25203E-07   -0.39748E-10    24   0.119E-04    0.729E-06
DAV:  14    -0.142207697248E+02   -0.27115E-08   -0.54019E-11    32   0.448E-05
  10 F= -.14220770E+02 E0= -.14220770E+02  d E =-.635257E-11
       N       E                     dE             d eps       ncg     rms          rms(c)
DAV:   1    -0.142226066625E+02   -0.18369E-02   -0.32773E-01    16   0.545E+00    0.266E-01
DAV:   2    -0.142219577069E+02    0.64896E-03   -0.76712E-03    16   0.775E-01    0.149E-01
DAV:   3    -0.142218443160E+02    0.11339E-03   -0.63168E-04    32   0.216E-01    0.611E-02
DAV:   4    -0.142218590326E+02   -0.14717E-04   -0.24690E-04    24   0.126E-01    0.238E-02
DAV:   5    -0.142218609289E+02   -0.18963E-05   -0.62225E-05    24   0.591E-02    0.540E-03
DAV:   6    -0.142218864851E+02   -0.25556E-04   -0.29524E-06    16   0.168E-02    0.232E-03
DAV:   7    -0.142219085683E+02   -0.22083E-04   -0.23074E-06    32   0.955E-03    0.126E-03
DAV:   8    -0.142219320623E+02   -0.23494E-04   -0.20575E-06    16   0.774E-03    0.107E-03
DAV:   9    -0.142219364783E+02   -0.44161E-05   -0.38760E-07    32   0.423E-03    0.402E-04
DAV:  10    -0.142219413740E+02   -0.48957E-05   -0.31716E-07    16   0.271E-03    0.185E-04
DAV:  11    -0.142219424072E+02   -0.10332E-05   -0.42887E-08    24   0.112E-03    0.914E-05
DAV:  12    -0.142219427529E+02   -0.34562E-06   -0.91786E-09    16   0.505E-04    0.278E-05
DAV:  13    -0.142219428382E+02   -0.85338E-07   -0.17648E-09    16   0.233E-04    0.106E-05
DAV:  14    -0.142219428517E+02   -0.13525E-07   -0.13571E-10    24   0.826E-05    0.461E-06
DAV:  15    -0.142219428532E+02   -0.14415E-08   -0.11617E-11    16   0.291E-05
  11 F= -.14221943E+02 E0= -.14221943E+02  d E =-.434262E-11
       N       E                     dE             d eps       ncg     rms          rms(c)
DAV:   1    -0.142252076322E+02   -0.32648E-02   -0.15033E-01    16   0.379E+00    0.154E-01
DAV:   2    -0.142251352614E+02    0.72371E-04   -0.25424E-03    32   0.482E-01    0.873E-02
DAV:   3    -0.142251301796E+02    0.50818E-05   -0.13315E-04    16   0.113E-01    0.342E-02
DAV:   4    -0.142251451345E+02   -0.14955E-04   -0.33038E-05    32   0.567E-02    0.771E-03
DAV:   5    -0.142251576238E+02   -0.12489E-04   -0.46958E-06    16   0.170E-02    0.343E-03
DAV:   6    -0.142251796006E+02   -0.21977E-04   -0.27665E-06    24   0.123E-02    0.108E-03
DAV:   7    -0.142251951411E+02   -0.15540E-04   -0.15472E-06    32   0.683E-03    0.801E-04
DAV:   8    -0.142252044086E+02   -0.92675E-05   -0.87048E-07    16   0.453E-03    0.353E-04
DAV:   9    -0.142252095592E+02   -0.51506E-05   -0.45670E-07    32   0.277E-03    0.121E-04
DAV:  10    -0.142252111194E+02   -0.15602E-05   -0.84306E-08    24   0.117E-03    0.926E-05
DAV:  11    -0.142252117576E+02   -0.63823E-06   -0.26951E-08    24   0.721E-04    0.259E-05
DAV:  12    -0.142252118598E+02   -0.10217E-06   -0.25894E-09    24   0.239E-04    0.208E-05
DAV:  13    -0.142252118755E+02   -0.15702E-07   -0.37803E-10    16   0.104E-04    0.637E-06
DAV:  14    -0.142252118773E+02   -0.17948E-08    0.18474E-12    32   0.364E-05
  12 F= -.14225212E+02 E0= -.14225212E+02  d E =-.517478E-11
       N       E                     dE             d eps       ncg     rms          rms(c)
DAV:   1    -0.142247110498E+02    0.50083E-03   -0.27361E-01    16   0.526E+00    0.161E-01
DAV:   2    -0.142249879039E+02   -0.27685E-03   -0.25397E-03    32   0.522E-01    0.956E-02
DAV:   3    -0.142250722654E+02   -0.84362E-04   -0.69323E-05    32   0.847E-02    0.185E-02
DAV:   4    -0.142250940022E+02   -0.21737E-04   -0.69123E-06    32   0.258E-02    0.562E-03
DAV:   5    -0.142251390717E+02   -0.45070E-04   -0.47007E-06    32   0.114E-02    0.172E-03
DAV:   6    -0.142251693976E+02   -0.30326E-04   -0.32412E-06    24   0.812E-03    0.150E-03
DAV:   7    -0.142251985953E+02   -0.29198E-04   -0.44242E-06    16   0.931E-03    0.491E-04
DAV:   8    -0.142252073113E+02   -0.87160E-05   -0.92568E-07    32   0.402E-03    0.326E-04
DAV:   9    -0.142252102343E+02   -0.29230E-05   -0.19706E-07    32   0.171E-03    0.161E-04
DAV:  10    -0.142252115957E+02   -0.13614E-05   -0.78317E-08    32   0.111E-03    0.660E-05
DAV:  11    -0.142252118134E+02   -0.21769E-06   -0.87369E-09    24   0.392E-04    0.474E-05
DAV:  12    -0.142252118731E+02   -0.59708E-07   -0.25599E-09    16   0.227E-04    0.135E-05
DAV:  13    -0.142252118767E+02   -0.35837E-08   -0.10402E-10    32   0.466E-05
  13 F= -.14225212E+02 E0= -.14225212E+02  d E =-.515981E-11
