       N       E                     dE             d eps       ncg     rms          rms(c)
DAV:   1     0.466496914049E+02    0.46650E+02   -0.19743E+03    16   0.437E+02
DAV:   2    -0.140664727102E+02   -0.60716E+02   -0.60716E+02    32   0.116E+02
DAV:   3    -0.163095656544E+02   -0.22431E+01   -0.22431E+01    16   0.394E+01
DAV:   4    -0.163246628458E+02   -0.15097E-01   -0.15097E-01    24   0.325E+00
DAV:   5    -0.163246739589E+02   -0.11113E-04   -0.11113E-04    32   0.760E-02    0.787E+00
DAV:   6    -0.143742261946E+02    0.19504E+01   -0.93977E+00    16   0.218E+01    0.303E+00
DAV:   7    -0.142631190157E+02    0.11111E+00   -0.15282E-01    24   0.287E+00    0.188E+00
DAV:   8    -0.141879184308E+02    0.75201E-01   -0.67437E-02    16   0.262E+00    0.224E-01
DAV:   9    -0.141938199631E+02   -0.59015E-02   -0.94366E-03    24   0.618E-01    0.158E-01
DAV:  10    -0.142025954181E+02   -0.87755E-02   -0.43162E-03    16   0.581E-01    0.663E-02
DAV:  11    -0.142054154239E+02   -0.28200E-02   -0.22350E-03    24   0.298E-01    0.593E-02
DAV:  12    -0.142068317388E+02   -0.14163E-02   -0.66209E-04    24   0.158E-01    0.166E-02
DAV:  13    -0.142071128927E+02   -0.28115E-03   -0.61822E-05    24   0.610E-02    0.785E-03
DAV:  14    -0.142071982361E+02   -0.85343E-04   -0.10096E-05    24   0.210E-02
    1 T=  2065. E= -.13673351E+02 F= -.14207198E+02 E0= -.14207198E+02  EK= 0.53385E+00 SP= 0.00E+00 SK= 0.00E+00
       N       E                     dE             d eps       ncg     rms          rms(c)
DAV:   1    -0.142145268000E+02   -0.74139E-02   -0.10412E+00    16   0.976E+00    0.436E-01
DAV:   2    -0.142129457555E+02    0.15810E-02   -0.23850E-02    24   0.138E+00    0.214E-01
DAV:   3    -0.142128140433E+02    0.13171E-03   -0.11279E-03    24   0.303E-01    0.975E-02
DAV:   4    -0.142128811490E+02   -0.67106E-04   -0.33680E-04    24   0.167E-01
    2 T=  2090. E= -.13672632E+02 F= -.14212881E+02 E0= -.14212881E+02  EK= 0.54025E+00 SP= 0.00E+00 SK= 0.00E+00
       N       E                     dE             d eps       ncg     rms          rms(c)
DAV:   1    -0.141667791009E+02    0.46035E-01   -0.82085E-02    24   0.259E+00    0.685E-02
DAV:   2    -0.141670074378E+02   -0.22834E-03   -0.20828E-03    16   0.505E-01    0.394E-02
DAV:   3    -0.141670627104E+02   -0.55273E-04   -0.37046E-05    24   0.602E-02
    3 T=  1919. E= -.13670999E+02 F= -.14167063E+02 E0= -.14167063E+02  EK= 0.49606E+00 SP= 0.00E+00 SK= 0.00E+00
       N       E                     dE             d eps       ncg     rms          rms(c)
DAV:   1    -0.140920750832E+02    0.74932E-01   -0.75538E-02    24   0.235E+00    0.565E-02
DAV:   2    -0.140924209399E+02   -0.34586E-03   -0.36082E-03    16   0.555E-01    0.490E-02
DAV:   3    -0.140924204182E+02    0.52175E-06   -0.64175E-05    24   0.716E-02
    4 T=  1637. E= -.13669267E+02 F= -.14092420E+02 E0= -.14092420E+02  EK= 0.42315E+00 SP= 0.00E+00 SK= 0.00E+00
       N       E                     dE             d eps       ncg     rms          rms(c)
DAV:   1    -0.140135210271E+02    0.78900E-01   -0.50164E-02    16   0.174E+00    0.562E-02
DAV:   2    -0.140140355531E+02   -0.51453E-03   -0.24775E-03    32   0.488E-01    0.426E-02
DAV:   3    -0.140141815715E+02   -0.14602E-03   -0.32344E-05    16   0.396E-02    0.274E-02
DAV:   4    -0.140146966679E+02   -0.51510E-03   -0.13937E-04    16   0.728E-02    0.858E-03
DAV:   5    -0.140147677058E+02   -0.71038E-04   -0.90085E-06    24   0.192E-02
    5 T=  1342. E= -.13667720E+02 F= -.14014768E+02 E0= -.14014768E+02  EK= 0.34705E+00 SP= 0.00E+00 SK= 0.00E+00
       N       E                     dE             d eps       ncg     rms          rms(c)
DAV:   1    -0.139556181249E+02    0.59079E-01   -0.41256E-02    24   0.144E+00    0.264E-02
DAV:   2    -0.139558876607E+02   -0.26954E-03   -0.13443E-03    24   0.330E-01    0.299E-02
DAV:   3    -0.139559399894E+02   -0.52329E-04   -0.21084E-05    32   0.337E-02
    6 T=  1119. E= -.13666636E+02 F= -.13955940E+02 E0= -.13955940E+02  EK= 0.28930E+00 SP= 0.00E+00 SK= 0.00E+00
       N       E                     dE             d eps       ncg     rms          rms(c)
DAV:   1    -0.139301352437E+02    0.25752E-01   -0.27587E-02    16   0.104E+00    0.266E-02
DAV:   2    -0.139304249186E+02   -0.28967E-03   -0.71283E-04    32   0.247E-01    0.225E-02
DAV:   3    -0.139305919980E+02   -0.16708E-03   -0.96699E-06    16   0.255E-02    0.137E-02
DAV:   4    -0.139310152549E+02   -0.42326E-03   -0.75150E-05    16   0.569E-02    0.703E-03
DAV:   5    -0.139310671729E+02   -0.51918E-04   -0.66934E-06    32   0.194E-02
    7 T=  1023. E= -.13666564E+02 F= -.13931067E+02 E0= -.13931067E+02  EK= 0.26450E+00 SP= 0.00E+00 SK= 0.00E+00
       N       E                     dE             d eps       ncg     rms          rms(c)
DAV:   1    -0.139437330277E+02   -0.12718E-01   -0.30452E-02    16   0.967E-01    0.215E-02
DAV:   2    -0.139441547186E+02   -0.42169E-03   -0.62483E-04    32   0.188E-01    0.134E-02
DAV:   3    -0.139445343497E+02   -0.37963E-03   -0.36726E-05    16   0.391E-02    0.794E-03
DAV:   4    -0.139450870176E+02   -0.55267E-03   -0.15658E-04    16   0.655E-02    0.398E-03
DAV:   5    -0.139451687490E+02   -0.81731E-04   -0.13578E-05    24   0.195E-02
    8 T=  1077. E= -.13666840E+02 F= -.13945169E+02 E0= -.13945169E+02  EK= 0.27833E+00 SP= 0.00E+00 SK= 0.00E+00
       N       E                     dE             d eps       ncg     rms          rms(c)
DAV:   1    -0.139942025176E+02   -0.49115E-01   -0.39932E-02    16   0.114E+00    0.197E-02
DAV:   2    -0.139943536411E+02   -0.15112E-03   -0.91309E-04    32   0.266E-01    0.170E-02
DAV:   3    -0.139943783911E+02   -0.24750E-04   -0.62678E-06    16   0.172E-02
    9 T=  1264. E= -.13667710E+02 F= -.13994378E+02 E0= -.13994378E+02  EK= 0.32667E+00 SP= 0.00E+00 SK= 0.00E+00
       N       E                     dE             d eps       ncg     rms          rms(c)
DAV:   1    -0.140641239307E+02   -0.69770E-01   -0.58598E-02    16   0.145E+00    0.148E-02
DAV:   2    -0.140643113162E+02   -0.18739E-03   -0.11963E-03    32   0.354E-01    0.216E-02
DAV:   3    -0.140643294103E+02   -0.18094E-04   -0.33536E-06    16   0.132E-02
   10 T=  1528. E= -.13669194E+02 F= -.14064329E+02 E0= -.14064329E+02  EK= 0.39514E+00 SP= 0.00E+00 SK= 0.00E+00
       N       E                     dE             d eps       ncg     rms          rms(c)
DAV:   1    -0.141306998077E+02   -0.66388E-01   -0.81399E-02    16   0.180E+00    0.193E-02
DAV:   2    -0.141309474989E+02   -0.24769E-03   -0.19717E-03    24   0.444E-01    0.333E-02
DAV:   3    -0.141309529050E+02   -0.54061E-05   -0.58886E-06    24   0.193E-02
   11 T=  1779. E= -.13671007E+02 F= -.14130953E+02 E0= -.14130953E+02  EK= 0.45995E+00 SP= 0.00E+00 SK= 0.00E+00
       N       E                     dE             d eps       ncg     rms          rms(c)
DAV:   1    -0.141653182882E+02   -0.34371E-01   -0.96155E-02    16   0.206E+00    0.232E-02
DAV:   2    -0.141655378244E+02   -0.21954E-03   -0.18300E-03    24   0.455E-01    0.364E-02
DAV:   3    -0.141655339393E+02    0.38851E-05   -0.91232E-07    24   0.111E-02
   12 T=  1908. E= -.13672291E+02 F= -.14165534E+02 E0= -.14165534E+02  EK= 0.49324E+00 SP= 0.00E+00 SK= 0.00E+00
       N       E                     dE             d eps       ncg     rms          rms(c)
DAV:   1    -0.141473124481E+02    0.18225E-01   -0.93196E-02    16   0.224E+00    0.469E-02
DAV:   2    -0.141475649060E+02   -0.25246E-03   -0.21976E-03    24   0.489E-01    0.454E-02
DAV:   3    -0.141475738147E+02   -0.89087E-05   -0.21517E-05    24   0.364E-02
   13 T=  1840. E= -.13671800E+02 F= -.14147574E+02 E0= -.14147574E+02  EK= 0.47577E+00 SP= 0.00E+00 SK= 0.00E+00
       N       E                     dE             d eps       ncg     rms          rms(c)
DAV:   1    -0.140842937671E+02    0.63271E-01   -0.64478E-02    16   0.207E+00    0.951E-02
DAV:   2    -0.140843698021E+02   -0.76035E-04   -0.21264E-03    24   0.480E-01    0.344E-02
DAV:   3    -0.140843947773E+02   -0.24975E-04   -0.18336E-05    16   0.412E-02
   14 T=  1607. E= -.13668960E+02 F= -.14084395E+02 E0= -.14084395E+02  EK= 0.41543E+00 SP= 0.00E+00 SK= 0.00E+00
       N       E                     dE             d eps       ncg     rms          rms(c)
DAV:   1    -0.140195639164E+02    0.64806E-01   -0.47809E-02    16   0.239E+00    0.520E-02
DAV:   2    -0.140197855516E+02   -0.22164E-03   -0.22166E-03    32   0.494E-01    0.232E-02
DAV:   3    -0.140198124333E+02   -0.26882E-04   -0.10300E-05    16   0.242E-02
   15 T=  1371. E= -.13665405E+02 F= -.14019812E+02 E0= -.14019812E+02  EK= 0.35441E+00 SP= 0.00E+00 SK= 0.00E+00
       N       E                     dE             d eps       ncg     rms          rms(c)
DAV:   1    -0.140060870772E+02    0.13698E-01   -0.25458E-02    16   0.207E+00    0.681E-02
DAV:   2    -0.140062534045E+02   -0.16633E-03   -0.18175E-03    32   0.445E-01    0.302E-02
DAV:   3    -0.140063122071E+02   -0.58803E-04   -0.10252E-05    24   0.310E-02
   16 T=  1322. E= -.13664487E+02 F= -.14006312E+02 E0= -.14006312E+02  EK= 0.34182E+00 SP= 0.00E+00 SK= 0.00E+00
       N       E                     dE             d eps       ncg     rms          rms(c)
DAV:   1    -0.140566055369E+02   -0.50352E-01   -0.22062E-02    16   0.194E+00    0.397E-02
DAV:   2    -0.140567998699E+02   -0.19433E-03   -0.16825E-03    24   0.390E-01    0.286E-02
DAV:   3    -0.140568183024E+02   -0.18432E-04   -0.47508E-06    24   0.229E-02
   17 T=  1507. E= -.13667207E+02 F= -.14056818E+02 E0= -.14056818E+02  EK= 0.38961E+00 SP= 0.00E+00 SK= 0.00E+00
       N       E                     dE             d eps       ncg     rms          rms(c)
DAV:   1    -0.141335823415E+02   -0.76782E-01   -0.42661E-02    16   0.208E+00    0.420E-02
DAV:   2    -0.141338416966E+02   -0.25936E-03   -0.21887E-03    32   0.431E-01    0.342E-02
DAV:   3    -0.141338590300E+02   -0.17333E-04   -0.76155E-06    16   0.272E-02
   18 T=  1793. E= -.13670316E+02 F= -.14133859E+02 E0= -.14133859E+02  EK= 0.46354E+00 SP= 0.00E+00 SK= 0.00E+00
       N       E                     dE             d eps       ncg     rms          rms(c)
DAV:   1    -0.141895592525E+02   -0.55718E-01   -0.66942E-02    16   0.220E+00    0.519E-02
DAV:   2    -0.141898368818E+02   -0.27763E-03   -0.26707E-03    24   0.521E-01    0.351E-02
DAV:   3    -0.141898509152E+02   -0.14033E-04   -0.12987E-05    32   0.340E-02
   19 T=  2004. E= -.13671782E+02 F= -.14189851E+02 E0= -.14189851E+02  EK= 0.51807E+00 SP= 0.00E+00 SK= 0.00E+00
       N       E                     dE             d eps       ncg     rms          rms(c)
DAV:   1    -0.141995516854E+02   -0.97148E-02   -0.81888E-02    16   0.214E+00    0.511E-02
DAV:   2    -0.141997571425E+02   -0.20546E-03   -0.23086E-03    24   0.509E-01    0.300E-02
DAV:   3    -0.141997554391E+02    0.17034E-05   -0.10270E-05    24   0.313E-02
   20 T=  2043. E= -.13671620E+02 F= -.14199755E+02 E0= -.14199755E+02  EK= 0.52814E+00 SP= 0.00E+00 SK= 0.00E+00
       N       E                     dE             d eps       ncg     rms          rms(c)
DAV:   1    -0.141641849176E+02    0.35572E-01   -0.81318E-02    24   0.185E+00    0.418E-02
DAV:   2    -0.141642817647E+02   -0.96847E-04   -0.11603E-03    24   0.353E-01    0.190E-02
DAV:   3    -0.141642906456E+02   -0.88808E-05   -0.65341E-06    32   0.240E-02
   21 T=  1910. E= -.13670396E+02 F= -.14164291E+02 E0= -.14164291E+02  EK= 0.49389E+00 SP= 0.00E+00 SK= 0.00E+00
       N       E                     dE             d eps       ncg     rms          rms(c)
DAV:   1    -0.141000559705E+02    0.64226E-01   -0.74141E-02    16   0.166E+00    0.405E-02
DAV:   2    -0.141002419463E+02   -0.18598E-03   -0.21305E-03    24   0.450E-01    0.280E-02
DAV:   3    -0.141002401593E+02    0.17871E-05   -0.13194E-05    16   0.289E-02
   22 T=  1668. E= -.13668931E+02 F= -.14100240E+02 E0= -.14100240E+02  EK= 0.43131E+00 SP= 0.00E+00 SK= 0.00E+00
       N       E                     dE             d eps       ncg     rms          rms(c)
DAV:   1    -0.140293002885E+02    0.70942E-01   -0.60373E-02    16   0.148E+00    0.340E-02
DAV:   2    -0.140294687766E+02   -0.16849E-03   -0.17272E-03    32   0.389E-01    0.308E-02
DAV:   3    -0.140294709819E+02   -0.22054E-05   -0.11363E-05    16   0.262E-02
   23 T=  1400. E= -.13667505E+02 F= -.14029471E+02 E0= -.14029471E+02  EK= 0.36197E+00 SP= 0.00E+00 SK= 0.00E+00
       N       E                     dE             d eps       ncg     rms          rms(c)
DAV:   1    -0.139725849630E+02    0.56884E-01   -0.43008E-02    16   0.120E+00    0.235E-02
DAV:   2    -0.139727054400E+02   -0.12048E-03   -0.11104E-03    16   0.292E-01    0.252E-02
DAV:   3    -0.139727084601E+02   -0.30202E-05   -0.12342E-05    32   0.302E-02
   24 T=  1185. E= -.13666474E+02 F= -.13972708E+02 E0= -.13972708E+02  EK= 0.30623E+00 SP= 0.00E+00 SK= 0.00E+00
       N       E                     dE             d eps       ncg     rms          rms(c)
DAV:   1    -0.139451207742E+02    0.27585E-01   -0.29084E-02    16   0.964E-01    0.237E-02
DAV:   2    -0.139451610427E+02   -0.40268E-04   -0.36228E-04    32   0.168E-01
   25 T=  1080. E= -.13666004E+02 F= -.13945161E+02 E0= -.13945161E+02  EK= 0.27916E+00 SP= 0.00E+00 SK= 0.00E+00
       N       E                     dE             d eps       ncg     rms          rms(c)
DAV:   1    -0.139541777764E+02   -0.90570E-02   -0.23385E-02    24   0.964E-01    0.240E-02
DAV:   2    -0.139542162832E+02   -0.38507E-04   -0.26060E-04    32   0.166E-01
   26 T=  1115. E= -.13666090E+02 F= -.13954216E+02 E0= -.13954216E+02  EK= 0.28813E+00 SP= 0.00E+00 SK= 0.00E+00
       N       E                     dE             d eps       ncg     rms          rms(c)
DAV:   1    -0.139982498754E+02   -0.44072E-01   -0.26696E-02    16   0.119E+00    0.133E-02
DAV:   2    -0.139983219994E+02   -0.72124E-04   -0.51264E-04    24   0.244E-01
   27 T=  1282. E= -.13666780E+02 F= -.13998322E+02 E0= -.13998322E+02  EK= 0.33154E+00 SP= 0.00E+00 SK= 0.00E+00
       N       E                     dE             d eps       ncg     rms          rms(c)
DAV:   1    -0.140659585176E+02   -0.67709E-01   -0.39350E-02    16   0.153E+00    0.238E-02
DAV:   2    -0.140660564403E+02   -0.97923E-04   -0.73091E-04    32   0.300E-01
   28 T=  1539. E= -.13668073E+02 F= -.14066056E+02 E0= -.14066056E+02  EK= 0.39798E+00 SP= 0.00E+00 SK= 0.00E+00
       N       E                     dE             d eps       ncg     rms          rms(c)
DAV:   1    -0.141362026579E+02   -0.70244E-01   -0.57017E-02    16   0.188E+00    0.552E-02
DAV:   2    -0.141363234698E+02   -0.12081E-03   -0.10327E-03    16   0.352E-01    0.448E-02
DAV:   3    -0.141363677605E+02   -0.44291E-04   -0.13045E-04    16   0.989E-02
   29 T=  1804. E= -.13670028E+02 F= -.14136368E+02 E0= -.14136368E+02  EK= 0.46634E+00 SP= 0.00E+00 SK= 0.00E+00
       N       E                     dE             d eps       ncg     rms          rms(c)
DAV:   1    -0.141814754752E+02   -0.45152E-01   -0.71742E-02    16   0.218E+00    0.255E-02
DAV:   2    -0.141816718595E+02   -0.19638E-03   -0.18243E-03    32   0.427E-01    0.278E-02
DAV:   3    -0.141816692262E+02    0.26333E-05   -0.15084E-05    16   0.272E-02
   30 T=  1972. E= -.13671775E+02 F= -.14181669E+02 E0= -.14181669E+02  EK= 0.50989E+00 SP= 0.00E+00 SK= 0.00E+00
       N       E                     dE             d eps       ncg     rms          rms(c)
DAV:   1    -0.141772761833E+02    0.43957E-02   -0.73772E-02    16   0.234E+00    0.269E-02
DAV:   2    -0.141774850217E+02   -0.20884E-03   -0.18252E-03    32   0.468E-01    0.298E-02
DAV:   3    -0.141774877264E+02   -0.27047E-05   -0.77421E-06    32   0.210E-02
   31 T=  1955. E= -.13672121E+02 F= -.14177488E+02 E0= -.14177488E+02  EK= 0.50537E+00 SP= 0.00E+00 SK= 0.00E+00
       N       E                     dE             d eps       ncg     rms          rms(c)
DAV:   1    -0.141181992485E+02    0.59286E-01   -0.61985E-02    16   0.233E+00    0.398E-02
DAV:   2    -0.141183930557E+02   -0.19381E-03   -0.20681E-03    24   0.462E-01    0.375E-02
DAV:   3    -0.141183887099E+02    0.43458E-05   -0.15424E-05    16   0.314E-02
   32 T=  1733. E= -.13670299E+02 F= -.14118389E+02 E0= -.14118389E+02  EK= 0.44809E+00 SP= 0.00E+00 SK= 0.00E+00
       N       E                     dE             d eps       ncg     rms          rms(c)
DAV:   1    -0.140331848310E+02    0.85208E-01   -0.45411E-02    16   0.239E+00    0.109E-01
DAV:   2    -0.140331870309E+02   -0.22000E-05   -0.25332E-03    32   0.521E-01    0.359E-02
DAV:   3    -0.140332026337E+02   -0.15603E-04   -0.16313E-05    16   0.380E-02
   33 T=  1418. E= -.13666617E+02 F= -.14033203E+02 E0= -.14033203E+02  EK= 0.36659E+00 SP= 0.00E+00 SK= 0.00E+00
       N       E                     dE             d eps       ncg     rms          rms(c)
DAV:   1    -0.139770945356E+02    0.56092E-01   -0.22736E-02    16   0.213E+00    0.519E-02
DAV:   2    -0.139772544401E+02   -0.15990E-03   -0.15160E-03    32   0.426E-01    0.270E-02
DAV:   3    -0.139772814434E+02   -0.27003E-04   -0.10482E-05    16   0.259E-02
   34 T=  1212. E= -.13663881E+02 F= -.13977281E+02 E0= -.13977281E+02  EK= 0.31340E+00 SP= 0.00E+00 SK= 0.00E+00
       N       E                     dE             d eps       ncg     rms          rms(c)
DAV:   1    -0.139908820581E+02   -0.13628E-01   -0.12776E-02    32   0.165E+00    0.492E-02
DAV:   2    -0.139909320415E+02   -0.49983E-04   -0.88876E-04    16   0.297E-01
   35 T=  1262. E= -.13664659E+02 F= -.13990932E+02 E0= -.13990932E+02  EK= 0.32627E+00 SP= 0.00E+00 SK= 0.00E+00
       N       E                     dE             d eps       ncg     rms          rms(c)
DAV:   1    -0.140631788047E+02   -0.72297E-01   -0.25444E-02    16   0.162E+00    0.562E-02
DAV:   2    -0.140633316385E+02   -0.15283E-03   -0.14414E-03    32   0.362E-01    0.450E-02
DAV:   3    -0.140633532609E+02   -0.21622E-04   -0.18643E-05    32   0.486E-02
   36 T=  1530. E= -.13667849E+02 F= -.14063353E+02 E0= -.14063353E+02  EK= 0.39550E+00 SP= 0.00E+00 SK= 0.00E+00
       N       E                     dE             d eps       ncg     rms          rms(c)
DAV:   1    -0.141461821127E+02   -0.82850E-01   -0.50204E-02    32   0.189E+00    0.403E-02
DAV:   2    -0.141462812450E+02   -0.99132E-04   -0.94271E-04    16   0.317E-01
   37 T=  1840. E= -.13670695E+02 F= -.14146281E+02 E0= -.14146281E+02  EK= 0.47559E+00 SP= 0.00E+00 SK= 0.00E+00
       N       E                     dE             d eps       ncg     rms          rms(c)
DAV:   1    -0.141949960835E+02   -0.48814E-01   -0.72667E-02    32   0.203E+00    0.644E-02
DAV:   2    -0.141950805039E+02   -0.84420E-04   -0.11300E-03    16   0.374E-01    0.384E-02
DAV:   3    -0.141950884252E+02   -0.79212E-05   -0.24788E-05    32   0.525E-02
   38 T=  2025. E= -.13671630E+02 F= -.14195088E+02 E0= -.14195088E+02  EK= 0.52346E+00 SP= 0.00E+00 SK= 0.00E+00
       N       E                     dE             d eps       ncg     rms          rms(c)
DAV:   1    -0.141925713972E+02    0.25091E-02   -0.82343E-02    16   0.204E+00    0.498E-02
DAV:   2    -0.141927383402E+02   -0.16694E-03   -0.21022E-03    32   0.515E-01    0.228E-02
DAV:   3    -0.141927411418E+02   -0.28016E-05   -0.13837E-05    16   0.287E-02
   39 T=  2018. E= -.13670942E+02 F= -.14192741E+02 E0= -.14192741E+02  EK= 0.52180E+00 SP= 0.00E+00 SK= 0.00E+00
       N       E                     dE             d eps       ncg     rms          rms(c)
DAV:   1    -0.141471593589E+02    0.45579E-01   -0.76019E-02    16   0.174E+00    0.517E-02
DAV:   2    -0.141472993734E+02   -0.14001E-03   -0.19837E-03    32   0.462E-01    0.216E-02
DAV:   3    -0.141472988619E+02    0.51152E-06   -0.15631E-05    32   0.317E-02
   40 T=  1848. E= -.13669475E+02 F= -.14147299E+02 E0= -.14147299E+02  EK= 0.47782E+00 SP= 0.00E+00 SK= 0.00E+00
       N       E                     dE             d eps       ncg     rms          rms(c)
DAV:   1    -0.140799759623E+02    0.67323E-01   -0.67956E-02    16   0.161E+00    0.343E-02
DAV:   2    -0.140802109035E+02   -0.23494E-03   -0.25028E-03    32   0.459E-01    0.393E-02
DAV:   3    -0.140801997447E+02    0.11159E-04   -0.25478E-05    16   0.362E-02
   41 T=  1595. E= -.13667830E+02 F= -.14080200E+02 E0= -.14080200E+02  EK= 0.41237E+00 SP= 0.00E+00 SK= 0.00E+00
       N       E                     dE             d eps       ncg     rms          rms(c)
DAV:   1    -0.140154972299E+02    0.64714E-01   -0.47643E-02    16   0.130E+00    0.393E-02
DAV:   2    -0.140156581323E+02   -0.16090E-03   -0.14936E-03    32   0.344E-01    0.443E-02
DAV:   3    -0.140156537999E+02    0.43324E-05   -0.65854E-06    32   0.207E-02
   42 T=  1351. E= -.13666426E+02 F= -.14015654E+02 E0= -.14015654E+02  EK= 0.34923E+00 SP= 0.00E+00 SK= 0.00E+00
       N       E                     dE             d eps       ncg     rms          rms(c)
DAV:   1    -0.139736307137E+02    0.42027E-01   -0.28805E-02    16   0.101E+00    0.327E-02
DAV:   2    -0.139737019352E+02   -0.71222E-04   -0.89194E-04    32   0.257E-01
   43 T=  1192. E= -.13665614E+02 F= -.13973702E+02 E0= -.13973702E+02  EK= 0.30809E+00 SP= 0.00E+00 SK= 0.00E+00
       N       E                     dE             d eps       ncg     rms          rms(c)
DAV:   1    -0.139663659216E+02    0.72648E-02   -0.19009E-02    32   0.916E-01    0.373E-02
DAV:   2    -0.139663850113E+02   -0.19090E-04   -0.40759E-04    16   0.195E-01
   44 T=  1164. E= -.13665388E+02 F= -.13966385E+02 E0= -.13966385E+02  EK= 0.30100E+00 SP= 0.00E+00 SK= 0.00E+00
       N       E                     dE             d eps       ncg     rms          rms(c)
DAV:   1    -0.139963449630E+02   -0.29979E-01   -0.16768E-02    16   0.107E+00    0.274E-02
DAV:   2    -0.139963893156E+02   -0.44353E-04   -0.40581E-04    32   0.213E-01
   45 T=  1278. E= -.13665873E+02 F= -.13996389E+02 E0= -.13996389E+02  EK= 0.33052E+00 SP= 0.00E+00 SK= 0.00E+00
       N       E                     dE             d eps       ncg     rms          rms(c)
DAV:   1    -0.140555540151E+02   -0.59209E-01   -0.25516E-02    16   0.136E+00    0.237E-02
DAV:   2    -0.140556171828E+02   -0.63168E-04   -0.52838E-04    32   0.258E-01
   46 T=  1503. E= -.13667072E+02 F= -.14055617E+02 E0= -.14055617E+02  EK= 0.38855E+00 SP= 0.00E+00 SK= 0.00E+00
       N       E                     dE             d eps       ncg     rms          rms(c)
DAV:   1    -0.141252062652E+02   -0.69652E-01   -0.42212E-02    32   0.167E+00    0.274E-02
DAV:   2    -0.141252544287E+02   -0.48164E-04   -0.42666E-04    16   0.239E-01
   47 T=  1765. E= -.13668847E+02 F= -.14125254E+02 E0= -.14125254E+02  EK= 0.45641E+00 SP= 0.00E+00 SK= 0.00E+00
       N       E                     dE             d eps       ncg     rms          rms(c)
DAV:   1    -0.141781134113E+02   -0.52907E-01   -0.57777E-02    32   0.193E+00    0.127E-02
DAV:   2    -0.141781924082E+02   -0.78997E-04   -0.66112E-04    16   0.288E-01
   48 T=  1963. E= -.13670697E+02 F= -.14178192E+02 E0= -.14178192E+02  EK= 0.50750E+00 SP= 0.00E+00 SK= 0.00E+00
       N       E                     dE             d eps       ncg     rms          rms(c)
DAV:   1    -0.141871071283E+02   -0.89937E-02   -0.67072E-02    16   0.214E+00    0.316E-02
DAV:   2    -0.141872808708E+02   -0.17374E-03   -0.14438E-03    32   0.419E-01    0.398E-02
DAV:   3    -0.141872744083E+02    0.64625E-05   -0.69882E-07    32   0.986E-03
   49 T=  1996. E= -.13671378E+02 F= -.14187274E+02 E0= -.14187274E+02  EK= 0.51590E+00 SP= 0.00E+00 SK= 0.00E+00
       N       E                     dE             d eps       ncg     rms          rms(c)
DAV:   1    -0.141411243705E+02    0.46157E-01   -0.59342E-02    32   0.213E+00    0.562E-02
DAV:   2    -0.141412184535E+02   -0.94083E-04   -0.71400E-04    16   0.278E-01
   50 T=  1823. E= -.13669947E+02 F= -.14141218E+02 E0= -.14141218E+02  EK= 0.47127E+00 SP= 0.00E+00 SK= 0.00E+00
       N       E                     dE             d eps       ncg     rms          rms(c)
DAV:   1    -0.140616699428E+02    0.79454E-01   -0.34985E-02    16   0.199E+00    0.147E-01
DAV:   2    -0.140615470936E+02    0.12285E-03   -0.32605E-03    32   0.582E-01    0.439E-02
DAV:   3    -0.140615663986E+02   -0.19305E-04   -0.22917E-05    24   0.450E-02
   51 T=  1527. E= -.13666684E+02 F= -.14061566E+02 E0= -.14061566E+02  EK= 0.39488E+00 SP= 0.00E+00 SK= 0.00E+00
       N       E                     dE             d eps       ncg     rms          rms(c)
DAV:   1    -0.139987123393E+02    0.62835E-01   -0.20556E-02    16   0.203E+00    0.374E-02
DAV:   2    -0.139989519447E+02   -0.23961E-03   -0.19976E-03    32   0.484E-01    0.213E-02
DAV:   3    -0.139989851144E+02   -0.33170E-04   -0.77953E-06    32   0.212E-02
   52 T=  1296. E= -.13663835E+02 F= -.13998985E+02 E0= -.13998985E+02  EK= 0.33515E+00 SP= 0.00E+00 SK= 0.00E+00
       N       E                     dE             d eps       ncg     rms          rms(c)
DAV:   1    -0.139952156365E+02    0.37363E-02   -0.12331E-02    16   0.175E+00    0.547E-02
DAV:   2    -0.139953437154E+02   -0.12808E-03   -0.16134E-03    24   0.411E-01    0.260E-02
DAV:   3    -0.139953623744E+02   -0.18659E-04   -0.11562E-05    16   0.356E-02
   53 T=  1281. E= -.13664154E+02 F= -.13995362E+02 E0= -.13995362E+02  EK= 0.33121E+00 SP= 0.00E+00 SK= 0.00E+00
       N       E                     dE             d eps       ncg     rms          rms(c)
DAV:   1    -0.140468194655E+02   -0.51476E-01   -0.24006E-02    24   0.178E+00    0.366E-02
DAV:   2    -0.140469869020E+02   -0.16744E-03   -0.15713E-03    24   0.360E-01    0.262E-02
DAV:   3    -0.140469990843E+02   -0.12182E-04   -0.48202E-06    24   0.235E-02
   54 T=  1471. E= -.13666824E+02 F= -.14046999E+02 E0= -.14046999E+02  EK= 0.38018E+00 SP= 0.00E+00 SK= 0.00E+00
       N       E                     dE             d eps       ncg     rms          rms(c)
DAV:   1    -0.141140826310E+02   -0.67096E-01   -0.49472E-02    16   0.189E+00    0.474E-02
DAV:   2    -0.141143068919E+02   -0.22426E-03   -0.20825E-03    32   0.428E-01    0.318E-02
DAV:   3    -0.141143208053E+02   -0.13913E-04   -0.87896E-06    16   0.341E-02
   55 T=  1721. E= -.13669329E+02 F= -.14114321E+02 E0= -.14114321E+02  EK= 0.44499E+00 SP= 0.00E+00 SK= 0.00E+00
       N       E                     dE             d eps       ncg     rms          rms(c)
DAV:   1    -0.141574860420E+02   -0.43179E-01   -0.74466E-02    32   0.189E+00    0.442E-02
DAV:   2    -0.141575783632E+02   -0.92321E-04   -0.10753E-03    32   0.318E-01    0.248E-02
DAV:   3    -0.141575823388E+02   -0.39756E-05   -0.83333E-06    32   0.300E-02
   56 T=  1884. E= -.13670428E+02 F= -.14157582E+02 E0= -.14157582E+02  EK= 0.48715E+00 SP= 0.00E+00 SK= 0.00E+00
       N       E                     dE             d eps       ncg     rms          rms(c)
DAV:   1    -0.141576176755E+02   -0.39312E-04   -0.85495E-02    16   0.173E+00    0.494E-02
DAV:   2    -0.141577771646E+02   -0.15949E-03   -0.18600E-03    32   0.442E-01    0.214E-02
DAV:   3    -0.141577837709E+02   -0.66063E-05   -0.98616E-06    24   0.288E-02
   57 T=  1886. E= -.13670087E+02 F= -.14157784E+02 E0= -.14157784E+02  EK= 0.48770E+00 SP= 0.00E+00 SK= 0.00E+00
       N       E                     dE             d eps       ncg     rms          rms(c)
DAV:   1    -0.141178237803E+02    0.39953E-01   -0.83651E-02    16   0.150E+00    0.426E-02
DAV:   2    -0.141179560480E+02   -0.13227E-03   -0.15910E-03    32   0.386E-01    0.192E-02
DAV:   3    -0.141179604987E+02   -0.44507E-05   -0.76996E-06    16   0.233E-02
   58 T=  1737. E= -.13668888E+02 F= -.14117960E+02 E0= -.14117960E+02  EK= 0.44907E+00 SP= 0.00E+00 SK= 0.00E+00
       N       E                     dE             d eps       ncg     rms          rms(c)
DAV:   1    -0.140554210668E+02    0.62535E-01   -0.74648E-02    32   0.134E+00    0.280E-02
DAV:   2    -0.140554838904E+02   -0.62824E-04   -0.69874E-04    16   0.259E-01
   59 T=  1501. E= -.13667348E+02 F= -.14055484E+02 E0= -.14055484E+02  EK= 0.38814E+00 SP= 0.00E+00 SK= 0.00E+00
       N       E                     dE             d eps       ncg     rms          rms(c)
DAV:   1    -0.139930274734E+02    0.62394E-01   -0.58121E-02    16   0.125E+00    0.546E-02
DAV:   2    -0.139931403900E+02   -0.11292E-03   -0.94542E-04    32   0.280E-01    0.418E-02
DAV:   3    -0.139931518178E+02   -0.11428E-04   -0.39305E-05    16   0.502E-02
   60 T=  1266. E= -.13665951E+02 F= -.13993152E+02 E0= -.13993152E+02  EK= 0.32720E+00 SP= 0.00E+00 SK= 0.00E+00
       N       E                     dE             d eps       ncg     rms          rms(c)
DAV:   1    -0.139516365344E+02    0.41504E-01   -0.35279E-02    16   0.107E+00    0.402E-02
DAV:   2    -0.139516941614E+02   -0.57627E-04   -0.83319E-04    32   0.262E-01
   61 T=  1109. E= -.13665098E+02 F= -.13951694E+02 E0= -.13951694E+02  EK= 0.28660E+00 SP= 0.00E+00 SK= 0.00E+00
       N       E                     dE             d eps       ncg     rms          rms(c)
DAV:   1    -0.139442620375E+02    0.73745E-02   -0.21053E-02    16   0.110E+00    0.321E-02
DAV:   2    -0.139443508783E+02   -0.88841E-04   -0.90404E-04    24   0.290E-01
   62 T=  1082. E= -.13664751E+02 F= -.13944351E+02 E0= -.13944351E+02  EK= 0.27960E+00 SP= 0.00E+00 SK= 0.00E+00
       N       E                     dE             d eps       ncg     rms          rms(c)
DAV:   1    -0.139751006910E+02   -0.30839E-01   -0.13660E-02    16   0.124E+00    0.352E-02
DAV:   2    -0.139751853133E+02   -0.84622E-04   -0.63369E-04    24   0.285E-01
   63 T=  1199. E= -.13665094E+02 F= -.13975185E+02 E0= -.13975185E+02  EK= 0.31009E+00 SP= 0.00E+00 SK= 0.00E+00
       N       E                     dE             d eps       ncg     rms          rms(c)
DAV:   1    -0.140376710548E+02   -0.62570E-01   -0.18544E-02    16   0.150E+00    0.250E-02
DAV:   2    -0.140377565632E+02   -0.85508E-04   -0.64016E-04    32   0.293E-01
   64 T=  1437. E= -.13666191E+02 F= -.14037757E+02 E0= -.14037757E+02  EK= 0.37157E+00 SP= 0.00E+00 SK= 0.00E+00
       N       E                     dE             d eps       ncg     rms          rms(c)
DAV:   1    -0.141149185294E+02   -0.77247E-01   -0.32026E-02    16   0.182E+00    0.182E-02
DAV:   2    -0.141150042644E+02   -0.85735E-04   -0.71650E-04    32   0.294E-01
   65 T=  1730. E= -.13667824E+02 F= -.14115004E+02 E0= -.14115004E+02  EK= 0.44718E+00 SP= 0.00E+00 SK= 0.00E+00
       N       E                     dE             d eps       ncg     rms          rms(c)
DAV:   1    -0.141814094197E+02   -0.66491E-01   -0.49169E-02    16   0.213E+00    0.376E-02
DAV:   2    -0.141815489448E+02   -0.13953E-03   -0.94698E-04    24   0.336E-01    0.357E-02
DAV:   3    -0.141815847107E+02   -0.35766E-04   -0.36154E-05    24   0.464E-02
   66 T=  1980. E= -.13669604E+02 F= -.14181585E+02 E0= -.14181585E+02  EK= 0.51198E+00 SP= 0.00E+00 SK= 0.00E+00
       N       E                     dE             d eps       ncg     rms          rms(c)
DAV:   1    -0.142105143904E+02   -0.28965E-01   -0.57774E-02    16   0.235E+00    0.452E-02
DAV:   2    -0.142106988750E+02   -0.18448E-03   -0.19386E-03    24   0.456E-01    0.263E-02
DAV:   3    -0.142107001451E+02   -0.12701E-05   -0.31312E-05    16   0.400E-02
   67 T=  2089. E= -.13670753E+02 F= -.14210700E+02 E0= -.14210700E+02  EK= 0.53995E+00 SP= 0.00E+00 SK= 0.00E+00
       N       E                     dE             d eps       ncg     rms          rms(c)
DAV:   1    -0.141862738738E+02    0.24425E-01   -0.59956E-02    16   0.253E+00    0.381E-02
DAV:   2    -0.141864478079E+02   -0.17393E-03   -0.16741E-03    16   0.426E-01    0.336E-02
DAV:   3    -0.141864478148E+02   -0.69332E-08   -0.14975E-05    32   0.351E-02
   68 T=  1997. E= -.13670155E+02 F= -.14186448E+02 E0= -.14186448E+02  EK= 0.51629E+00 SP= 0.00E+00 SK= 0.00E+00
       N       E                     dE             d eps       ncg     rms          rms(c)
DAV:   1    -0.141181872613E+02    0.68261E-01   -0.39692E-02    16   0.222E+00    0.657E-02
DAV:   2    -0.141182346678E+02   -0.47406E-04   -0.15093E-03    16   0.408E-01    0.247E-02
DAV:   3    -0.141182417827E+02   -0.71149E-05   -0.15564E-05    24   0.418E-02
   69 T=  1743. E= -.13667720E+02 F= -.14118242E+02 E0= -.14118242E+02  EK= 0.45052E+00 SP= 0.00E+00 SK= 0.00E+00
       N       E                     dE             d eps       ncg     rms          rms(c)
DAV:   1    -0.140432775346E+02    0.74957E-01   -0.33960E-02    16   0.250E+00    0.670E-02
DAV:   2    -0.140434566700E+02   -0.17914E-03   -0.21763E-03    32   0.500E-01    0.308E-02
DAV:   3    -0.140434799973E+02   -0.23327E-04   -0.13248E-05    16   0.313E-02
   70 T=  1465. E= -.13664840E+02 F= -.14043480E+02 E0= -.14043480E+02  EK= 0.37864E+00 SP= 0.00E+00 SK= 0.00E+00
       N       E                     dE             d eps       ncg     rms          rms(c)
DAV:   1    -0.140056948084E+02    0.37762E-01   -0.19329E-02    16   0.199E+00    0.546E-02
DAV:   2    -0.140058216217E+02   -0.12681E-03   -0.13053E-03    24   0.407E-01    0.286E-02
DAV:   3    -0.140058457815E+02   -0.24160E-04   -0.99196E-06    16   0.318E-02
   71 T=  1323. E= -.13663697E+02 F= -.14005846E+02 E0= -.14005846E+02  EK= 0.34215E+00 SP= 0.00E+00 SK= 0.00E+00
       N       E                     dE             d eps       ncg     rms          rms(c)
DAV:   1    -0.140230163430E+02   -0.17195E-01   -0.25233E-02    24   0.162E+00    0.427E-02
DAV:   2    -0.140230955739E+02   -0.79231E-04   -0.75195E-04    16   0.289E-01
   72 T=  1385. E= -.13665049E+02 F= -.14023096E+02 E0= -.14023096E+02  EK= 0.35805E+00 SP= 0.00E+00 SK= 0.00E+00
       N       E                     dE             d eps       ncg     rms          rms(c)
DAV:   1    -0.140760199031E+02   -0.53004E-01   -0.46976E-02    16   0.153E+00    0.644E-02
DAV:   2    -0.140761431971E+02   -0.12329E-03   -0.13061E-03    24   0.350E-01    0.420E-02
DAV:   3    -0.140761566869E+02   -0.13490E-04   -0.18130E-05    32   0.470E-02
   73 T=  1580. E= -.13667573E+02 F= -.14076157E+02 E0= -.14076157E+02  EK= 0.40858E+00 SP= 0.00E+00 SK= 0.00E+00
       N       E                     dE             d eps       ncg     rms          rms(c)
DAV:   1    -0.141271478503E+02   -0.51005E-01   -0.73389E-02    16   0.161E+00    0.426E-02
DAV:   2    -0.141272734645E+02   -0.12561E-03   -0.14543E-03    24   0.409E-01    0.165E-02
DAV:   3    -0.141272805614E+02   -0.70969E-05   -0.67439E-06    24   0.234E-02
   74 T=  1771. E= -.13669485E+02 F= -.14127281E+02 E0= -.14127281E+02  EK= 0.45780E+00 SP= 0.00E+00 SK= 0.00E+00
       N       E                     dE             d eps       ncg     rms          rms(c)
DAV:   1    -0.141458831084E+02   -0.18610E-01   -0.89763E-02    24   0.165E+00    0.522E-02
DAV:   2    -0.141459775386E+02   -0.94430E-04   -0.13643E-03    24   0.399E-01    0.213E-02
DAV:   3    -0.141459824240E+02   -0.48854E-05   -0.97287E-06    24   0.294E-02
   75 T=  1841. E= -.13669956E+02 F= -.14145982E+02 E0= -.14145982E+02  EK= 0.47603E+00 SP= 0.00E+00 SK= 0.00E+00
       N       E                     dE             d eps       ncg     rms          rms(c)
DAV:   1    -0.141228759700E+02    0.23102E-01   -0.91472E-02    16   0.160E+00    0.469E-02
DAV:   2    -0.141229745320E+02   -0.98562E-04   -0.14656E-03    24   0.403E-01    0.182E-02
DAV:   3    -0.141229734787E+02    0.10533E-05   -0.12844E-05    16   0.307E-02
   76 T=  1756. E= -.13669129E+02 F= -.14122973E+02 E0= -.14122973E+02  EK= 0.45384E+00 SP= 0.00E+00 SK= 0.00E+00
       N       E                     dE             d eps       ncg     rms          rms(c)
DAV:   1    -0.140690378629E+02    0.53937E-01   -0.78985E-02    16   0.142E+00    0.436E-02
DAV:   2    -0.140691582485E+02   -0.12039E-03   -0.16473E-03    24   0.397E-01    0.219E-02
DAV:   3    -0.140691568216E+02    0.14269E-05   -0.15475E-05    24   0.324E-02
   77 T=  1553. E= -.13667652E+02 F= -.14069157E+02 E0= -.14069157E+02  EK= 0.40150E+00 SP= 0.00E+00 SK= 0.00E+00
       N       E                     dE             d eps       ncg     rms          rms(c)
DAV:   1    -0.140058628424E+02    0.63295E-01   -0.61360E-02    16   0.127E+00    0.304E-02
DAV:   2    -0.140059938382E+02   -0.13100E-03   -0.14538E-03    24   0.356E-01    0.277E-02
DAV:   3    -0.140059893140E+02    0.45242E-05   -0.16783E-05    24   0.304E-02
   78 T=  1314. E= -.13666164E+02 F= -.14005989E+02 E0= -.14005989E+02  EK= 0.33982E+00 SP= 0.00E+00 SK= 0.00E+00
       N       E                     dE             d eps       ncg     rms          rms(c)
DAV:   1    -0.139555015960E+02    0.50492E-01   -0.39796E-02    16   0.107E+00    0.284E-02
DAV:   2    -0.139555761594E+02   -0.74563E-04   -0.72003E-04    24   0.259E-01
   79 T=  1124. E= -.13665051E+02 F= -.13955576E+02 E0= -.13955576E+02  EK= 0.29052E+00 SP= 0.00E+00 SK= 0.00E+00
       N       E                     dE             d eps       ncg     rms          rms(c)
DAV:   1    -0.139343692859E+02    0.21132E-01   -0.20499E-02    16   0.912E-01    0.383E-02
DAV:   2    -0.139344379869E+02   -0.68701E-04   -0.58942E-04    24   0.240E-01
   80 T=  1044. E= -.13664518E+02 F= -.13934438E+02 E0= -.13934438E+02  EK= 0.26992E+00 SP= 0.00E+00 SK= 0.00E+00
       N       E                     dE             d eps       ncg     rms          rms(c)
DAV:   1    -0.139502210879E+02   -0.15852E-01   -0.10745E-02    16   0.971E-01    0.174E-02
DAV:   2    -0.139502719108E+02   -0.50823E-04   -0.50233E-04    24   0.244E-01
   81 T=  1105. E= -.13664680E+02 F= -.13950272E+02 E0= -.13950272E+02  EK= 0.28559E+00 SP= 0.00E+00 SK= 0.00E+00
       N       E                     dE             d eps       ncg     rms          rms(c)
DAV:   1    -0.140004326421E+02   -0.50212E-01   -0.12771E-02    16   0.120E+00    0.213E-02
DAV:   2    -0.140004730018E+02   -0.40360E-04   -0.30715E-04    16   0.194E-01
   82 T=  1296. E= -.13665522E+02 F= -.14000473E+02 E0= -.14000473E+02  EK= 0.33495E+00 SP= 0.00E+00 SK= 0.00E+00
       N       E                     dE             d eps       ncg     rms          rms(c)
DAV:   1    -0.140719260826E+02   -0.71493E-01   -0.25350E-02    16   0.150E+00    0.176E-02
DAV:   2    -0.140719711713E+02   -0.45089E-04   -0.41537E-04    24   0.242E-01
   83 T=  1567. E= -.13666953E+02 F= -.14071971E+02 E0= -.14071971E+02  EK= 0.40502E+00 SP= 0.00E+00 SK= 0.00E+00
       N       E                     dE             d eps       ncg     rms          rms(c)
DAV:   1    -0.141425018708E+02   -0.70576E-01   -0.41641E-02    16   0.176E+00    0.220E-02
DAV:   2    -0.141425679545E+02   -0.66084E-04   -0.58994E-04    24   0.274E-01
   84 T=  1833. E= -.13668618E+02 F= -.14142568E+02 E0= -.14142568E+02  EK= 0.47395E+00 SP= 0.00E+00 SK= 0.00E+00
       N       E                     dE             d eps       ncg     rms          rms(c)
DAV:   1    -0.141859654887E+02   -0.43464E-01   -0.56823E-02    16   0.195E+00    0.257E-02
DAV:   2    -0.141860709125E+02   -0.10542E-03   -0.86429E-04    24   0.319E-01    0.274E-02
DAV:   3    -0.141860736825E+02   -0.27701E-05   -0.44721E-06    32   0.169E-02
   85 T=  1997. E= -.13669895E+02 F= -.14186074E+02 E0= -.14186074E+02  EK= 0.51618E+00 SP= 0.00E+00 SK= 0.00E+00
       N       E                     dE             d eps       ncg     rms          rms(c)
DAV:   1    -0.141828285330E+02    0.32424E-02   -0.58537E-02    16   0.197E+00    0.338E-02
DAV:   2    -0.141829493393E+02   -0.12081E-03   -0.13330E-03    32   0.381E-01    0.248E-02
DAV:   3    -0.141829480902E+02    0.12491E-05   -0.11968E-05    16   0.258E-02
   86 T=  1984. E= -.13669920E+02 F= -.14182948E+02 E0= -.14182948E+02  EK= 0.51303E+00 SP= 0.00E+00 SK= 0.00E+00
       N       E                     dE             d eps       ncg     rms          rms(c)
DAV:   1    -0.141347766022E+02    0.48173E-01   -0.50047E-02    24   0.189E+00    0.439E-02
DAV:   2    -0.141348723760E+02   -0.95774E-04   -0.11899E-03    24   0.366E-01    0.237E-02
DAV:   3    -0.141348813790E+02   -0.90029E-05   -0.58074E-06    32   0.210E-02
   87 T=  1806. E= -.13668004E+02 F= -.14134881E+02 E0= -.14134881E+02  EK= 0.46688E+00 SP= 0.00E+00 SK= 0.00E+00
       N       E                     dE             d eps       ncg     rms          rms(c)
DAV:   1    -0.140721603833E+02    0.62712E-01   -0.34321E-02    16   0.173E+00    0.615E-02
DAV:   2    -0.140722446256E+02   -0.84242E-04   -0.16378E-03    32   0.431E-01    0.200E-02
DAV:   3    -0.140722470914E+02   -0.24657E-05   -0.13893E-05    16   0.305E-02
   88 T=  1574. E= -.13665248E+02 F= -.14072247E+02 E0= -.14072247E+02  EK= 0.40700E+00 SP= 0.00E+00 SK= 0.00E+00
       N       E                     dE             d eps       ncg     rms          rms(c)
DAV:   1    -0.140369984028E+02    0.35246E-01   -0.20822E-02    24   0.150E+00    0.515E-02
DAV:   2    -0.140370555968E+02   -0.57194E-04   -0.10668E-03    16   0.344E-01    0.201E-02
DAV:   3    -0.140370622730E+02   -0.66762E-05   -0.81866E-06    32   0.308E-02
   89 T=  1444. E= -.13663816E+02 F= -.14037062E+02 E0= -.14037062E+02  EK= 0.37325E+00 SP= 0.00E+00 SK= 0.00E+00
       N       E                     dE             d eps       ncg     rms          rms(c)
DAV:   1    -0.140507780513E+02   -0.13722E-01   -0.20608E-02    16   0.143E+00    0.404E-02
DAV:   2    -0.140509030250E+02   -0.12497E-03   -0.12945E-03    24   0.326E-01    0.206E-02
DAV:   3    -0.140509147816E+02   -0.11757E-04   -0.42649E-06    16   0.235E-02
   90 T=  1494. E= -.13664700E+02 F= -.14050915E+02 E0= -.14050915E+02  EK= 0.38621E+00 SP= 0.00E+00 SK= 0.00E+00
       N       E                     dE             d eps       ncg     rms          rms(c)
DAV:   1    -0.141002214848E+02   -0.49318E-01   -0.35061E-02    16   0.155E+00    0.390E-02
DAV:   2    -0.141003641481E+02   -0.14266E-03   -0.15375E-03    32   0.369E-01    0.263E-02
DAV:   3    -0.141003630510E+02    0.10970E-05   -0.72554E-06    16   0.280E-02
   91 T=  1677. E= -.13666927E+02 F= -.14100363E+02 E0= -.14100363E+02  EK= 0.43344E+00 SP= 0.00E+00 SK= 0.00E+00
       N       E                     dE             d eps       ncg     rms          rms(c)
DAV:   1    -0.141511309143E+02   -0.50767E-01   -0.55911E-02    16   0.166E+00    0.455E-02
DAV:   2    -0.141512735156E+02   -0.14260E-03   -0.16358E-03    32   0.421E-01    0.276E-02
DAV:   3    -0.141512728269E+02    0.68872E-06   -0.13359E-05    16   0.333E-02
   92 T=  1866. E= -.13668870E+02 F= -.14151273E+02 E0= -.14151273E+02  EK= 0.48240E+00 SP= 0.00E+00 SK= 0.00E+00
       N       E                     dE             d eps       ncg     rms          rms(c)
DAV:   1    -0.141723902697E+02   -0.21117E-01   -0.71974E-02    16   0.167E+00    0.464E-02
DAV:   2    -0.141725112337E+02   -0.12096E-03   -0.15732E-03    32   0.422E-01    0.211E-02
DAV:   3    -0.141725114240E+02   -0.19034E-06   -0.10908E-05    16   0.287E-02
   93 T=  1945. E= -.13669602E+02 F= -.14172511E+02 E0= -.14172511E+02  EK= 0.50291E+00 SP= 0.00E+00 SK= 0.00E+00
       N       E                     dE             d eps       ncg     rms          rms(c)
DAV:   1    -0.141509927442E+02    0.21518E-01   -0.77692E-02    24   0.160E+00    0.376E-02
DAV:   2    -0.141510634431E+02   -0.70699E-04   -0.10032E-03    32   0.339E-01    0.156E-02
DAV:   3    -0.141510619660E+02    0.14771E-05   -0.59835E-06     8   0.233E-02
   94 T=  1865. E= -.13669003E+02 F= -.14151062E+02 E0= -.14151062E+02  EK= 0.48206E+00 SP= 0.00E+00 SK= 0.00E+00
       N       E                     dE             d eps       ncg     rms          rms(c)
DAV:   1    -0.140943483378E+02    0.56715E-01   -0.68736E-02    16   0.144E+00    0.402E-02
DAV:   2    -0.140944365366E+02   -0.88199E-04   -0.12427E-03    16   0.354E-01    0.166E-02
DAV:   3    -0.140944364944E+02    0.42165E-07   -0.92819E-06    24   0.294E-02
   95 T=  1651. E= -.13667575E+02 F= -.14094436E+02 E0= -.14094436E+02  EK= 0.42686E+00 SP= 0.00E+00 SK= 0.00E+00
       N       E                     dE             d eps       ncg     rms          rms(c)
DAV:   1    -0.140232874329E+02    0.71149E-01   -0.54371E-02    24   0.133E+00    0.292E-02
DAV:   2    -0.140233579076E+02   -0.70475E-04   -0.86458E-04    24   0.300E-01
   96 T=  1382. E= -.13665978E+02 F= -.14023358E+02 E0= -.14023358E+02  EK= 0.35738E+00 SP= 0.00E+00 SK= 0.00E+00
       N       E                     dE             d eps       ncg     rms          rms(c)
DAV:   1    -0.139614894328E+02    0.61798E-01   -0.37328E-02    16   0.125E+00    0.531E-02
DAV:   2    -0.139615908243E+02   -0.10139E-03   -0.10462E-03    24   0.321E-01    0.373E-02
DAV:   3    -0.139615980098E+02   -0.71855E-05   -0.27158E-05    16   0.427E-02
   97 T=  1148. E= -.13664728E+02 F= -.13961598E+02 E0= -.13961598E+02  EK= 0.29687E+00 SP= 0.00E+00 SK= 0.00E+00
       N       E                     dE             d eps       ncg     rms          rms(c)
DAV:   1    -0.139282170956E+02    0.33374E-01   -0.19703E-02    24   0.116E+00    0.205E-02
DAV:   2    -0.139282778946E+02   -0.60799E-04   -0.61961E-04    32   0.246E-01
   98 T=  1022. E= -.13664099E+02 F= -.13928278E+02 E0= -.13928278E+02  EK= 0.26418E+00 SP= 0.00E+00 SK= 0.00E+00
       N       E                     dE             d eps       ncg     rms          rms(c)
DAV:   1    -0.139332968228E+02   -0.50797E-02   -0.10483E-02    32   0.115E+00    0.199E-02
DAV:   2    -0.139333411431E+02   -0.44320E-04   -0.40575E-04    16   0.217E-01
   99 T=  1041. E= -.13664123E+02 F= -.13933341E+02 E0= -.13933341E+02  EK= 0.26922E+00 SP= 0.00E+00 SK= 0.00E+00
       N       E                     dE             d eps       ncg     rms          rms(c)
DAV:   1    -0.139760672200E+02   -0.42770E-01   -0.12082E-02    24   0.131E+00    0.190E-02
DAV:   2    -0.139761181997E+02   -0.50980E-04   -0.45243E-04    32   0.232E-01
  100 T=  1204. E= -.13664849E+02 F= -.13976118E+02 E0= -.13976118E+02  EK= 0.31127E+00 SP= 0.00E+00 SK= 0.00E+00
       N       E                     dE             d eps       ncg     rms          rms(c)
DAV:   1    -0.140450532044E+02   -0.68986E-01   -0.23370E-02    16   0.154E+00    0.281E-02
DAV:   2    -0.140451221353E+02   -0.68931E-04   -0.61655E-04    32   0.279E-01
  101 T=  1466. E= -.13666145E+02 F= -.14045122E+02 E0= -.14045122E+02  EK= 0.37898E+00 SP= 0.00E+00 SK= 0.00E+00
       N       E                     dE             d eps       ncg     rms          rms(c)
DAV:   1    -0.141196790112E+02   -0.74626E-01   -0.39983E-02    32   0.178E+00    0.235E-02
DAV:   2    -0.141197217791E+02   -0.42768E-04   -0.33939E-04    16   0.209E-01
  102 T=  1748. E= -.13667788E+02 F= -.14119722E+02 E0= -.14119722E+02  EK= 0.45193E+00 SP= 0.00E+00 SK= 0.00E+00
       N       E                     dE             d eps       ncg     rms          rms(c)
DAV:   1    -0.141745686823E+02   -0.54890E-01   -0.54280E-02    32   0.200E+00    0.209E-02
DAV:   2    -0.141746422068E+02   -0.73525E-04   -0.66926E-04    16   0.285E-01
  103 T=  1955. E= -.13669156E+02 F= -.14174642E+02 E0= -.14174642E+02  EK= 0.50549E+00 SP= 0.00E+00 SK= 0.00E+00
       N       E                     dE             d eps       ncg     rms          rms(c)
DAV:   1    -0.141891857072E+02   -0.14617E-01   -0.62437E-02    32   0.214E+00    0.401E-02
DAV:   2    -0.141892865540E+02   -0.10085E-03   -0.81142E-04    24   0.298E-01    0.336E-02
DAV:   3    -0.141893034482E+02   -0.16894E-04   -0.20689E-05    32   0.402E-02
  104 T=  2011. E= -.13669467E+02 F= -.14189303E+02 E0= -.14189303E+02  EK= 0.51984E+00 SP= 0.00E+00 SK= 0.00E+00
       N       E                     dE             d eps       ncg     rms          rms(c)
DAV:   1    -0.141598679173E+02    0.29419E-01   -0.51940E-02    16   0.204E+00    0.650E-02
DAV:   2    -0.141599373270E+02   -0.69410E-04   -0.16193E-03    16   0.420E-01    0.187E-02
DAV:   3    -0.141599408772E+02   -0.35503E-05   -0.15466E-05    32   0.399E-02
  105 T=  1902. E= -.13668326E+02 F= -.14159941E+02 E0= -.14159941E+02  EK= 0.49162E+00 SP= 0.00E+00 SK= 0.00E+00
       N       E                     dE             d eps       ncg     rms          rms(c)
DAV:   1    -0.141059082512E+02    0.54029E-01   -0.42553E-02    32   0.210E+00    0.495E-02
DAV:   2    -0.141060027415E+02   -0.94490E-04   -0.13204E-03    32   0.392E-01    0.194E-02
DAV:   3    -0.141060150889E+02   -0.12347E-04   -0.40215E-06    16   0.186E-02
  106 T=  1702. E= -.13666118E+02 F= -.14106015E+02 E0= -.14106015E+02  EK= 0.43990E+00 SP= 0.00E+00 SK= 0.00E+00
       N       E                     dE             d eps       ncg     rms          rms(c)
DAV:   1    -0.140620762282E+02    0.43927E-01   -0.31773E-02    16   0.194E+00    0.539E-02
DAV:   2    -0.140622312915E+02   -0.15506E-03   -0.19093E-03    32   0.463E-01    0.295E-02
DAV:   3    -0.140622330033E+02   -0.17119E-05   -0.20545E-05    16   0.409E-02
  107 T=  1539. E= -.13664297E+02 F= -.14062233E+02 E0= -.14062233E+02  EK= 0.39794E+00 SP= 0.00E+00 SK= 0.00E+00
       N       E                     dE             d eps       ncg     rms          rms(c)
DAV:   1    -0.140572916849E+02    0.49396E-02   -0.28934E-02    32   0.165E+00    0.511E-02
DAV:   2    -0.140573693513E+02   -0.77666E-04   -0.99943E-04    16   0.338E-01
  108 T=  1521. E= -.13664137E+02 F= -.14057369E+02 E0= -.14057369E+02  EK= 0.39323E+00 SP= 0.00E+00 SK= 0.00E+00
       N       E                     dE             d eps       ncg     rms          rms(c)
DAV:   1    -0.140945660654E+02   -0.37274E-01   -0.37717E-02    16   0.143E+00    0.766E-02
DAV:   2    -0.140946788755E+02   -0.11281E-03   -0.12518E-03    32   0.333E-01    0.443E-02
DAV:   3    -0.140947061710E+02   -0.27295E-04   -0.28028E-05    16   0.627E-02
  109 T=  1659. E= -.13665920E+02 F= -.14094706E+02 E0= -.14094706E+02  EK= 0.42879E+00 SP= 0.00E+00 SK= 0.00E+00
       N       E                     dE             d eps       ncg     rms          rms(c)
DAV:   1    -0.141484979618E+02   -0.53819E-01   -0.56412E-02    32   0.137E+00    0.290E-02
DAV:   2    -0.141485550895E+02   -0.57128E-04   -0.54613E-04    32   0.235E-01
  110 T=  1857. E= -.13668360E+02 F= -.14148555E+02 E0= -.14148555E+02  EK= 0.48020E+00 SP= 0.00E+00 SK= 0.00E+00
       N       E                     dE             d eps       ncg     rms          rms(c)
DAV:   1    -0.141823025920E+02   -0.33805E-01   -0.72996E-02    16   0.149E+00    0.511E-02
DAV:   2    -0.141823752375E+02   -0.72645E-04   -0.94879E-04    32   0.322E-01
  111 T=  1983. E= -.13669653E+02 F= -.14182375E+02 E0= -.14182375E+02  EK= 0.51272E+00 SP= 0.00E+00 SK= 0.00E+00
       N       E                     dE             d eps       ncg     rms          rms(c)
DAV:   1    -0.141735714664E+02    0.87311E-02   -0.80003E-02    32   0.158E+00    0.531E-02
DAV:   2    -0.141736177622E+02   -0.46296E-04   -0.53577E-04    32   0.258E-01
  112 T=  1951. E= -.13669345E+02 F= -.14173618E+02 E0= -.14173618E+02  EK= 0.50427E+00 SP= 0.00E+00 SK= 0.00E+00
       N       E                     dE             d eps       ncg     rms          rms(c)
DAV:   1    -0.141238338883E+02    0.49738E-01   -0.72135E-02    16   0.156E+00    0.434E-02
DAV:   2    -0.141239123655E+02   -0.78477E-04   -0.10870E-03    32   0.350E-01    0.199E-02
DAV:   3    -0.141239153871E+02   -0.30216E-05   -0.10201E-05    16   0.263E-02
  113 T=  1763. E= -.13668018E+02 F= -.14123915E+02 E0= -.14123915E+02  EK= 0.45590E+00 SP= 0.00E+00 SK= 0.00E+00
       N       E                     dE             d eps       ncg     rms          rms(c)
DAV:   1    -0.140523857528E+02    0.71527E-01   -0.55596E-02    16   0.143E+00    0.400E-02
DAV:   2    -0.140525040843E+02   -0.11833E-03   -0.12907E-03    32   0.364E-01    0.288E-02
DAV:   3    -0.140525117433E+02   -0.76590E-05   -0.12585E-05    16   0.267E-02
  114 T=  1494. E= -.13666300E+02 F= -.14052512E+02 E0= -.14052512E+02  EK= 0.38621E+00 SP= 0.00E+00 SK= 0.00E+00
       N       E                     dE             d eps       ncg     rms          rms(c)
DAV:   1    -0.139840637641E+02    0.68440E-01   -0.37141E-02    24   0.131E+00    0.163E-02
DAV:   2    -0.139841662400E+02   -0.10248E-03   -0.84846E-04    32   0.285E-01    0.138E-02
DAV:   3    -0.139841749970E+02   -0.87570E-05   -0.16291E-06    16   0.105E-02
  115 T=  1235. E= -.13664905E+02 F= -.13984175E+02 E0= -.13984175E+02  EK= 0.31927E+00 SP= 0.00E+00 SK= 0.00E+00
       N       E                     dE             d eps       ncg     rms          rms(c)
DAV:   1    -0.139395007378E+02    0.44666E-01   -0.19034E-02    16   0.108E+00    0.200E-02
DAV:   2    -0.139395895363E+02   -0.88798E-04   -0.84429E-04    32   0.291E-01
  116 T=  1065. E= -.13664152E+02 F= -.13939590E+02 E0= -.13939590E+02  EK= 0.27544E+00 SP= 0.00E+00 SK= 0.00E+00
       N       E                     dE             d eps       ncg     rms          rms(c)
DAV:   1    -0.139305336167E+02    0.89671E-02   -0.77131E-03    24   0.966E-01    0.275E-02
DAV:   2    -0.139306058828E+02   -0.72266E-04   -0.53895E-04    32   0.249E-01
  117 T=  1031. E= -.13664019E+02 F= -.13930606E+02 E0= -.13930606E+02  EK= 0.26659E+00 SP= 0.00E+00 SK= 0.00E+00
       N       E                     dE             d eps       ncg     rms          rms(c)
DAV:   1    -0.139588757169E+02   -0.28342E-01   -0.75830E-03    16   0.105E+00    0.127E-02
DAV:   2    -0.139589397042E+02   -0.63987E-04   -0.43600E-04    32   0.229E-01
  118 T=  1139. E= -.13664579E+02 F= -.13958940E+02 E0= -.13958940E+02  EK= 0.29436E+00 SP= 0.00E+00 SK= 0.00E+00
       N       E                     dE             d eps       ncg     rms          rms(c)
DAV:   1    -0.140157885904E+02   -0.56913E-01   -0.17817E-02    32   0.127E+00    0.173E-02
DAV:   2    -0.140158310602E+02   -0.42470E-04   -0.24861E-04    16   0.183E-01
  119 T=  1354. E= -.13665745E+02 F= -.14015831E+02 E0= -.14015831E+02  EK= 0.35009E+00 SP= 0.00E+00 SK= 0.00E+00
       N       E                     dE             d eps       ncg     rms          rms(c)
DAV:   1    -0.140832273629E+02   -0.67439E-01   -0.34914E-02    32   0.152E+00    0.138E-02
DAV:   2    -0.140832797356E+02   -0.52373E-04   -0.39536E-04    16   0.217E-01
  120 T=  1609. E= -.13667265E+02 F= -.14083280E+02 E0= -.14083280E+02  EK= 0.41601E+00 SP= 0.00E+00 SK= 0.00E+00
       N       E                     dE             d eps       ncg     rms          rms(c)
DAV:   1    -0.141375166980E+02   -0.54289E-01   -0.56998E-02    32   0.175E+00    0.214E-02
DAV:   2    -0.141376169750E+02   -0.10028E-03   -0.73963E-04    16   0.272E-01    0.234E-02
DAV:   3    -0.141376235181E+02   -0.65431E-05   -0.62174E-06    32   0.223E-02
  121 T=  1814. E= -.13668636E+02 F= -.14137624E+02 E0= -.14137624E+02  EK= 0.46899E+00 SP= 0.00E+00 SK= 0.00E+00
       N       E                     dE             d eps       ncg     rms          rms(c)
DAV:   1    -0.141570139002E+02   -0.19397E-01   -0.68187E-02    16   0.184E+00    0.276E-02
DAV:   2    -0.141571427895E+02   -0.12889E-03   -0.13153E-03    32   0.365E-01    0.252E-02
DAV:   3    -0.141571437487E+02   -0.95917E-06   -0.12995E-05    32   0.264E-02
  122 T=  1887. E= -.13669253E+02 F= -.14157144E+02 E0= -.14157144E+02  EK= 0.48789E+00 SP= 0.00E+00 SK= 0.00E+00
       N       E                     dE             d eps       ncg     rms          rms(c)
DAV:   1    -0.141331524545E+02    0.23990E-01   -0.63554E-02    16   0.177E+00    0.469E-02
DAV:   2    -0.141333391515E+02   -0.18670E-03   -0.22424E-03    32   0.448E-01    0.324E-02
DAV:   3    -0.141333376965E+02    0.14550E-05   -0.24159E-05    32   0.367E-02
  123 T=  1799. E= -.13668307E+02 F= -.14133338E+02 E0= -.14133338E+02  EK= 0.46503E+00 SP= 0.00E+00 SK= 0.00E+00
       N       E                     dE             d eps       ncg     rms          rms(c)
DAV:   1    -0.140811730995E+02    0.52166E-01   -0.50773E-02    24   0.164E+00    0.546E-02
DAV:   2    -0.140812543153E+02   -0.81216E-04   -0.14236E-03    32   0.390E-01    0.213E-02
DAV:   3    -0.140812622588E+02   -0.79435E-05   -0.11271E-05    16   0.282E-02
  124 T=  1606. E= -.13666021E+02 F= -.14081262E+02 E0= -.14081262E+02  EK= 0.41524E+00 SP= 0.00E+00 SK= 0.00E+00
       N       E                     dE             d eps       ncg     rms          rms(c)
DAV:   1    -0.140359358200E+02    0.45318E-01   -0.35452E-02    16   0.144E+00    0.550E-02
DAV:   2    -0.140360431287E+02   -0.10731E-03   -0.15721E-03    32   0.400E-01    0.216E-02
DAV:   3    -0.140360502813E+02   -0.71526E-05   -0.14718E-05    16   0.316E-02
  125 T=  1440. E= -.13663785E+02 F= -.14036050E+02 E0= -.14036050E+02  EK= 0.37227E+00 SP= 0.00E+00 SK= 0.00E+00
       N       E                     dE             d eps       ncg     rms          rms(c)
DAV:   1    -0.140315872457E+02    0.44559E-02   -0.24516E-02    16   0.128E+00    0.458E-02
DAV:   2    -0.140316816711E+02   -0.94425E-04   -0.10597E-03    32   0.288E-01    0.209E-02
DAV:   3    -0.140316964333E+02   -0.14762E-04   -0.61085E-06    16   0.273E-02
  126 T=  1425. E= -.13663209E+02 F= -.14031696E+02 E0= -.14031696E+02  EK= 0.36849E+00 SP= 0.00E+00 SK= 0.00E+00
       N       E                     dE             d eps       ncg     rms          rms(c)
DAV:   1    -0.140763650775E+02   -0.44683E-01   -0.27746E-02    24   0.140E+00    0.348E-02
DAV:   2    -0.140764276846E+02   -0.62607E-04   -0.60757E-04    16   0.259E-01
  127 T=  1592. E= -.13664821E+02 F= -.14076428E+02 E0= -.14076428E+02  EK= 0.41161E+00 SP= 0.00E+00 SK= 0.00E+00
       N       E                     dE             d eps       ncg     rms          rms(c)
DAV:   1    -0.141455537151E+02   -0.69189E-01   -0.41651E-02    16   0.164E+00    0.531E-02
DAV:   2    -0.141456609599E+02   -0.10724E-03   -0.11494E-03    32   0.367E-01    0.416E-02
DAV:   3    -0.141456624620E+02   -0.15022E-05   -0.18343E-05    16   0.400E-02
  128 T=  1850. E= -.13667441E+02 F= -.14145662E+02 E0= -.14145662E+02  EK= 0.47822E+00 SP= 0.00E+00 SK= 0.00E+00
       N       E                     dE             d eps       ncg     rms          rms(c)
DAV:   1    -0.141991200915E+02   -0.53459E-01   -0.58948E-02    16   0.183E+00    0.464E-02
DAV:   2    -0.141992302520E+02   -0.11016E-03   -0.14417E-03    32   0.418E-01    0.172E-02
DAV:   3    -0.141992334793E+02   -0.32274E-05   -0.13630E-05    16   0.275E-02
  129 T=  2050. E= -.13669284E+02 F= -.14199233E+02 E0= -.14199233E+02  EK= 0.52995E+00 SP= 0.00E+00 SK= 0.00E+00
       N       E                     dE             d eps       ncg     rms          rms(c)
DAV:   1    -0.142076681634E+02   -0.84379E-02   -0.70262E-02    24   0.199E+00    0.409E-02
DAV:   2    -0.142077762125E+02   -0.10805E-03   -0.12379E-03    16   0.396E-01    0.253E-02
DAV:   3    -0.142077791808E+02   -0.29683E-05   -0.11168E-05    32   0.354E-02
  130 T=  2083. E= -.13669389E+02 F= -.14207779E+02 E0= -.14207779E+02  EK= 0.53839E+00 SP= 0.00E+00 SK= 0.00E+00
       N       E                     dE             d eps       ncg     rms          rms(c)
DAV:   1    -0.141672383637E+02    0.40538E-01   -0.66465E-02    16   0.197E+00    0.436E-02
DAV:   2    -0.141673446961E+02   -0.10633E-03   -0.14811E-03    24   0.430E-01    0.170E-02
DAV:   3    -0.141673452324E+02   -0.53627E-06   -0.84665E-06    16   0.252E-02
  131 T=  1931. E= -.13668137E+02 F= -.14167345E+02 E0= -.14167345E+02  EK= 0.49921E+00 SP= 0.00E+00 SK= 0.00E+00
       N       E                     dE             d eps       ncg     rms          rms(c)
DAV:   1    -0.140953466738E+02    0.71998E-01   -0.52339E-02    24   0.172E+00    0.323E-02
DAV:   2    -0.140954265397E+02   -0.79866E-04   -0.10055E-03    24   0.338E-01    0.189E-02
DAV:   3    -0.140954269332E+02   -0.39353E-06   -0.58943E-06    24   0.200E-02
  132 T=  1660. E= -.13666385E+02 F= -.14095427E+02 E0= -.14095427E+02  EK= 0.42904E+00 SP= 0.00E+00 SK= 0.00E+00
       N       E                     dE             d eps       ncg     rms          rms(c)
DAV:   1    -0.140179932235E+02    0.77433E-01   -0.38029E-02    16   0.163E+00    0.280E-02
DAV:   2    -0.140181599924E+02   -0.16677E-03   -0.16973E-03    24   0.427E-01    0.259E-02
DAV:   3    -0.140181585738E+02    0.14186E-05   -0.93974E-06    16   0.236E-02
  133 T=  1367. E= -.13664804E+02 F= -.14018159E+02 E0= -.14018159E+02  EK= 0.35335E+00 SP= 0.00E+00 SK= 0.00E+00
       N       E                     dE             d eps       ncg     rms          rms(c)
DAV:   1    -0.139592055702E+02    0.58954E-01   -0.18871E-02    16   0.135E+00    0.302E-02
DAV:   2    -0.139593268366E+02   -0.12127E-03   -0.11636E-03    24   0.351E-01    0.279E-02
DAV:   3    -0.139593286985E+02   -0.18618E-05   -0.45389E-06    16   0.170E-02
  134 T=  1143. E= -.13663765E+02 F= -.13959329E+02 E0= -.13959329E+02  EK= 0.29556E+00 SP= 0.00E+00 SK= 0.00E+00
       N       E                     dE             d eps       ncg     rms          rms(c)
DAV:   1    -0.139344625708E+02    0.24864E-01   -0.76668E-03    16   0.114E+00    0.137E-02
DAV:   2    -0.139345382805E+02   -0.75710E-04   -0.74431E-04    24   0.278E-01
  135 T=  1049. E= -.13663445E+02 F= -.13934538E+02 E0= -.13934538E+02  EK= 0.27109E+00 SP= 0.00E+00 SK= 0.00E+00
       N       E                     dE             d eps       ncg     rms          rms(c)
DAV:   1    -0.139486829037E+02   -0.14220E-01   -0.82222E-03    16   0.105E+00    0.207E-02
DAV:   2    -0.139487235089E+02   -0.40605E-04   -0.32197E-04    16   0.189E-01
  136 T=  1102. E= -.13663815E+02 F= -.13948724E+02 E0= -.13948724E+02  EK= 0.28491E+00 SP= 0.00E+00 SK= 0.00E+00
       N       E                     dE             d eps       ncg     rms          rms(c)
DAV:   1    -0.139959667306E+02   -0.47284E-01   -0.20842E-02    24   0.116E+00    0.149E-02
DAV:   2    -0.139960076505E+02   -0.40920E-04   -0.32926E-04    16   0.199E-01
  137 T=  1281. E= -.13664832E+02 F= -.13996008E+02 E0= -.13996008E+02  EK= 0.33118E+00 SP= 0.00E+00 SK= 0.00E+00
       N       E                     dE             d eps       ncg     rms          rms(c)
DAV:   1    -0.140605565731E+02   -0.64590E-01   -0.40320E-02    16   0.134E+00    0.206E-02
DAV:   2    -0.140606184721E+02   -0.61899E-04   -0.59529E-04    24   0.260E-01
  138 T=  1525. E= -.13666272E+02 F= -.14060618E+02 E0= -.14060618E+02  EK= 0.39435E+00 SP= 0.00E+00 SK= 0.00E+00
       N       E                     dE             d eps       ncg     rms          rms(c)
DAV:   1    -0.141197705233E+02   -0.59214E-01   -0.62195E-02    16   0.153E+00    0.267E-02
DAV:   2    -0.141198679570E+02   -0.97434E-04   -0.90929E-04    32   0.304E-01
  139 T=  1749. E= -.13667674E+02 F= -.14119868E+02 E0= -.14119868E+02  EK= 0.45219E+00 SP= 0.00E+00 SK= 0.00E+00
       N       E                     dE             d eps       ncg     rms          rms(c)
DAV:   1    -0.141504568973E+02   -0.30686E-01   -0.76928E-02    16   0.167E+00    0.434E-02
DAV:   2    -0.141505994334E+02   -0.14254E-03   -0.12507E-03    24   0.350E-01    0.465E-02
DAV:   3    -0.141505945737E+02    0.48597E-05   -0.44589E-06    16   0.194E-02
  140 T=  1865. E= -.13668454E+02 F= -.14150595E+02 E0= -.14150595E+02  EK= 0.48214E+00 SP= 0.00E+00 SK= 0.00E+00
       N       E                     dE             d eps       ncg     rms          rms(c)
DAV:   1    -0.141390837292E+02    0.11516E-01   -0.71294E-02    16   0.169E+00    0.957E-02
DAV:   2    -0.141391727616E+02   -0.89032E-04   -0.25688E-03    24   0.501E-01    0.255E-02
DAV:   3    -0.141391772447E+02   -0.44831E-05   -0.27361E-05    24   0.405E-02
  141 T=  1822. E= -.13668180E+02 F= -.14139177E+02 E0= -.14139177E+02  EK= 0.47100E+00 SP= 0.00E+00 SK= 0.00E+00
       N       E                     dE             d eps       ncg     rms          rms(c)
DAV:   1    -0.140904960124E+02    0.48677E-01   -0.63998E-02    16   0.173E+00    0.366E-02
DAV:   2    -0.140907115763E+02   -0.21556E-03   -0.21830E-03    24   0.468E-01    0.342E-02
DAV:   3    -0.140907096899E+02    0.18864E-05   -0.14992E-05    16   0.322E-02
  142 T=  1641. E= -.13666541E+02 F= -.14090710E+02 E0= -.14090710E+02  EK= 0.42417E+00 SP= 0.00E+00 SK= 0.00E+00
       N       E                     dE             d eps       ncg     rms          rms(c)
DAV:   1    -0.140313763132E+02    0.59335E-01   -0.46255E-02    16   0.173E+00    0.600E-02
DAV:   2    -0.140315156729E+02   -0.13936E-03   -0.21717E-03    24   0.460E-01    0.231E-02
DAV:   3    -0.140315184904E+02   -0.28175E-05   -0.13734E-05    24   0.368E-02
  143 T=  1421. E= -.13664176E+02 F= -.14031518E+02 E0= -.14031518E+02  EK= 0.36734E+00 SP= 0.00E+00 SK= 0.00E+00
       N       E                     dE             d eps       ncg     rms          rms(c)
DAV:   1    -0.139990452084E+02    0.32470E-01   -0.29194E-02    16   0.164E+00    0.592E-02
DAV:   2    -0.139992013512E+02   -0.15614E-03   -0.18835E-03    24   0.397E-01    0.277E-02
DAV:   3    -0.139992105530E+02   -0.92018E-05   -0.11445E-05    16   0.345E-02
  144 T=  1302. E= -.13662495E+02 F= -.13999211E+02 E0= -.13999211E+02  EK= 0.33672E+00 SP= 0.00E+00 SK= 0.00E+00
       N       E                     dE             d eps       ncg     rms          rms(c)
DAV:   1    -0.140200811906E+02   -0.20880E-01   -0.25596E-02    16   0.154E+00    0.456E-02
DAV:   2    -0.140202285055E+02   -0.14731E-03   -0.14030E-03    24   0.345E-01    0.277E-02
DAV:   3    -0.140202397379E+02   -0.11232E-04   -0.27880E-05    16   0.483E-02
  145 T=  1382. E= -.13663066E+02 F= -.14020240E+02 E0= -.14020240E+02  EK= 0.35717E+00 SP= 0.00E+00 SK= 0.00E+00
       N       E                     dE             d eps       ncg     rms          rms(c)
DAV:   1    -0.140861945952E+02   -0.65966E-01   -0.33705E-02    16   0.148E+00    0.434E-02
DAV:   2    -0.140863121874E+02   -0.11759E-03   -0.13618E-03    16   0.365E-01    0.306E-02
DAV:   3    -0.140863100528E+02    0.21346E-05   -0.18282E-05    32   0.401E-02
  146 T=  1627. E= -.13665819E+02 F= -.14086310E+02 E0= -.14086310E+02  EK= 0.42049E+00 SP= 0.00E+00 SK= 0.00E+00
       N       E                     dE             d eps       ncg     rms          rms(c)
DAV:   1    -0.141562003525E+02   -0.69888E-01   -0.50701E-02    24   0.160E+00    0.388E-02
DAV:   2    -0.141562433766E+02   -0.43024E-04   -0.68488E-04    16   0.288E-01
  147 T=  1887. E= -.13668442E+02 F= -.14156243E+02 E0= -.14156243E+02  EK= 0.48780E+00 SP= 0.00E+00 SK= 0.00E+00
       N       E                     dE             d eps       ncg     rms          rms(c)
DAV:   1    -0.141880824462E+02   -0.31882E-01   -0.65560E-02    16   0.183E+00    0.406E-02
DAV:   2    -0.141881698470E+02   -0.87401E-04   -0.80411E-04    32   0.321E-01
  148 T=  2008. E= -.13669122E+02 F= -.14188170E+02 E0= -.14188170E+02  EK= 0.51905E+00 SP= 0.00E+00 SK= 0.00E+00
       N       E                     dE             d eps       ncg     rms          rms(c)
DAV:   1    -0.141677228025E+02    0.20360E-01   -0.65271E-02    24   0.189E+00    0.504E-02
DAV:   2    -0.141677734562E+02   -0.50654E-04   -0.79549E-04    16   0.341E-01
  149 T=  1933. E= -.13668022E+02 F= -.14167773E+02 E0= -.14167773E+02  EK= 0.49975E+00 SP= 0.00E+00 SK= 0.00E+00
       N       E                     dE             d eps       ncg     rms          rms(c)
DAV:   1    -0.141087467376E+02    0.58976E-01   -0.53942E-02    24   0.179E+00    0.368E-02
DAV:   2    -0.141088210704E+02   -0.74333E-04   -0.81765E-04    24   0.331E-01
  150 T=  1712. E= -.13666197E+02 F= -.14108821E+02 E0= -.14108821E+02  EK= 0.44262E+00 SP= 0.00E+00 SK= 0.00E+00
       N       E                     dE             d eps       ncg     rms          rms(c)
DAV:   1    -0.140377560306E+02    0.70991E-01   -0.36506E-02    24   0.158E+00    0.433E-02
DAV:   2    -0.140378673172E+02   -0.11129E-03   -0.84000E-04    16   0.305E-01    0.329E-02
DAV:   3    -0.140378961564E+02   -0.28839E-04   -0.10010E-05    16   0.312E-02
  151 T=  1444. E= -.13664471E+02 F= -.14037896E+02 E0= -.14037896E+02  EK= 0.37342E+00 SP= 0.00E+00 SK= 0.00E+00
       N       E                     dE             d eps       ncg     rms          rms(c)
DAV:   1    -0.139805624485E+02    0.57305E-01   -0.19445E-02    16   0.136E+00    0.481E-02
DAV:   2    -0.139806846201E+02   -0.12217E-03   -0.11526E-03    24   0.347E-01    0.289E-02
DAV:   3    -0.139806971853E+02   -0.12565E-04   -0.17760E-05    24   0.328E-02
  152 T=  1227. E= -.13663388E+02 F= -.13980697E+02 E0= -.13980697E+02  EK= 0.31731E+00 SP= 0.00E+00 SK= 0.00E+00
       N       E                     dE             d eps       ncg     rms          rms(c)
DAV:   1    -0.139542558921E+02    0.26429E-01   -0.81523E-03    16   0.103E+00    0.196E-02
DAV:   2    -0.139543582490E+02   -0.10236E-03   -0.76847E-04    24   0.257E-01    0.157E-02
DAV:   3    -0.139543732908E+02   -0.15042E-04   -0.23393E-06    24   0.118E-02
  153 T=  1127. E= -.13662925E+02 F= -.13954373E+02 E0= -.13954373E+02  EK= 0.29145E+00 SP= 0.00E+00 SK= 0.00E+00
       N       E                     dE             d eps       ncg     rms          rms(c)
DAV:   1    -0.139655569593E+02   -0.11199E-01   -0.89702E-03    24   0.907E-01    0.200E-02
DAV:   2    -0.139656227998E+02   -0.65841E-04   -0.35415E-04    24   0.204E-01
  154 T=  1170. E= -.13663174E+02 F= -.13965623E+02 E0= -.13965623E+02  EK= 0.30245E+00 SP= 0.00E+00 SK= 0.00E+00
       N       E                     dE             d eps       ncg     rms          rms(c)
DAV:   1    -0.140102552361E+02   -0.44698E-01   -0.21667E-02    16   0.973E-01    0.141E-02
DAV:   2    -0.140103194779E+02   -0.64242E-04   -0.39846E-04    32   0.223E-01
  155 T=  1339. E= -.13664089E+02 F= -.14010319E+02 E0= -.14010319E+02  EK= 0.34623E+00 SP= 0.00E+00 SK= 0.00E+00
       N       E                     dE             d eps       ncg     rms          rms(c)
DAV:   1    -0.140742585133E+02   -0.64003E-01   -0.43317E-02    16   0.121E+00    0.216E-02
DAV:   2    -0.140743729899E+02   -0.11448E-03   -0.60621E-04    16   0.266E-01    0.250E-02
DAV:   3    -0.140743761552E+02   -0.31653E-05   -0.40705E-06    24   0.168E-02
  156 T=  1582. E= -.13665383E+02 F= -.14074376E+02 E0= -.14074376E+02  EK= 0.40899E+00 SP= 0.00E+00 SK= 0.00E+00
       N       E                     dE             d eps       ncg     rms          rms(c)
DAV:   1    -0.141362000636E+02   -0.61827E-01   -0.63091E-02    16   0.146E+00    0.403E-02
DAV:   2    -0.141363302397E+02   -0.13018E-03   -0.13449E-03    24   0.368E-01    0.220E-02
DAV:   3    -0.141363436771E+02   -0.13437E-04   -0.21783E-05    16   0.342E-02
  157 T=  1816. E= -.13666894E+02 F= -.14136344E+02 E0= -.14136344E+02  EK= 0.46945E+00 SP= 0.00E+00 SK= 0.00E+00
       N       E                     dE             d eps       ncg     rms          rms(c)
DAV:   1    -0.141717298692E+02   -0.35400E-01   -0.87595E-02    24   0.169E+00    0.163E-02
DAV:   2    -0.141718762557E+02   -0.14639E-03   -0.12139E-03    24   0.340E-01    0.273E-02
DAV:   3    -0.141718744598E+02    0.17959E-05   -0.60116E-07    32   0.925E-03
  158 T=  1949. E= -.13667984E+02 F= -.14171874E+02 E0= -.14171874E+02  EK= 0.50389E+00 SP= 0.00E+00 SK= 0.00E+00
       N       E                     dE             d eps       ncg     rms          rms(c)
DAV:   1    -0.141624235109E+02    0.94527E-02   -0.95883E-02    24   0.178E+00    0.657E-02
DAV:   2    -0.141625533441E+02   -0.12983E-03   -0.11450E-03    16   0.345E-01    0.485E-02
DAV:   3    -0.141626155728E+02   -0.62229E-04   -0.98869E-05    24   0.819E-02
  159 T=  1913. E= -.13668171E+02 F= -.14162616E+02 E0= -.14162616E+02  EK= 0.49444E+00 SP= 0.00E+00 SK= 0.00E+00
       N       E                     dE             d eps       ncg     rms          rms(c)
DAV:   1    -0.141073400453E+02    0.55213E-01   -0.77778E-02    16   0.171E+00    0.754E-02
DAV:   2    -0.141075677984E+02   -0.22775E-03   -0.35765E-03    32   0.556E-01    0.367E-02
DAV:   3    -0.141075657076E+02    0.20908E-05   -0.52478E-05    16   0.546E-02
  160 T=  1705. E= -.13666835E+02 F= -.14107566E+02 E0= -.14107566E+02  EK= 0.44073E+00 SP= 0.00E+00 SK= 0.00E+00
       N       E                     dE             d eps       ncg     rms          rms(c)
DAV:   1    -0.140308164862E+02    0.76751E-01   -0.61002E-02    16   0.174E+00    0.823E-02
DAV:   2    -0.140309990712E+02   -0.18259E-03   -0.25687E-03    32   0.513E-01    0.271E-02
DAV:   3    -0.140310585339E+02   -0.59463E-04   -0.91273E-06    24   0.304E-02
  161 T=  1420. E= -.13663922E+02 F= -.14031059E+02 E0= -.14031059E+02  EK= 0.36714E+00 SP= 0.00E+00 SK= 0.00E+00
       N       E                     dE             d eps       ncg     rms          rms(c)
DAV:   1    -0.139773926663E+02    0.53606E-01   -0.34961E-02    32   0.156E+00    0.369E-02
DAV:   2    -0.139775330743E+02   -0.14041E-03   -0.96233E-04    16   0.275E-01    0.186E-02
DAV:   3    -0.139775801376E+02   -0.47063E-04   -0.13987E-05    24   0.368E-02
  162 T=  1223. E= -.13661468E+02 F= -.13977580E+02 E0= -.13977580E+02  EK= 0.31611E+00 SP= 0.00E+00 SK= 0.00E+00
       N       E                     dE             d eps       ncg     rms          rms(c)
DAV:   1    -0.139847429613E+02   -0.72099E-02   -0.18068E-02    32   0.141E+00    0.449E-02
DAV:   2    -0.139847897200E+02   -0.46759E-04   -0.41969E-04    16   0.220E-01
  163 T=  1250. E= -.13661519E+02 F= -.13984790E+02 E0= -.13984790E+02  EK= 0.32327E+00 SP= 0.00E+00 SK= 0.00E+00
       N       E                     dE             d eps       ncg     rms          rms(c)
DAV:   1    -0.140518011243E+02   -0.67058E-01   -0.17183E-02    16   0.152E+00    0.430E-02
DAV:   2    -0.140519358615E+02   -0.13474E-03   -0.10596E-03    32   0.345E-01    0.335E-02
DAV:   3    -0.140519638794E+02   -0.28018E-04   -0.98346E-06    16   0.288E-02
  164 T=  1500. E= -.13664297E+02 F= -.14051964E+02 E0= -.14051964E+02  EK= 0.38767E+00 SP= 0.00E+00 SK= 0.00E+00
       N       E                     dE             d eps       ncg     rms          rms(c)
DAV:   1    -0.141366812229E+02   -0.84745E-01   -0.33020E-02    16   0.186E+00    0.335E-02
DAV:   2    -0.141368117085E+02   -0.13049E-03   -0.12099E-03    32   0.383E-01    0.184E-02
DAV:   3    -0.141368224822E+02   -0.10774E-04   -0.11330E-05    16   0.261E-02
  165 T=  1815. E= -.13667587E+02 F= -.14136822E+02 E0= -.14136822E+02  EK= 0.46924E+00 SP= 0.00E+00 SK= 0.00E+00
       N       E                     dE             d eps       ncg     rms          rms(c)
DAV:   1    -0.141892867226E+02   -0.52475E-01   -0.48166E-02    24   0.217E+00    0.438E-02
DAV:   2    -0.141894073896E+02   -0.12067E-03   -0.13186E-03    16   0.419E-01    0.253E-02
DAV:   3    -0.141894212144E+02   -0.13825E-04   -0.97139E-06    24   0.342E-02
  166 T=  2013. E= -.13668911E+02 F= -.14189421E+02 E0= -.14189421E+02  EK= 0.52051E+00 SP= 0.00E+00 SK= 0.00E+00
       N       E                     dE             d eps       ncg     rms          rms(c)
DAV:   1    -0.141864832559E+02    0.29241E-02   -0.53122E-02    24   0.231E+00    0.469E-02
DAV:   2    -0.141865982250E+02   -0.11497E-03   -0.15900E-03    16   0.460E-01    0.173E-02
DAV:   3    -0.141866059393E+02   -0.77143E-05   -0.10269E-05    32   0.335E-02
  167 T=  2005. E= -.13668210E+02 F= -.14186606E+02 E0= -.14186606E+02  EK= 0.51840E+00 SP= 0.00E+00 SK= 0.00E+00
       N       E                     dE             d eps       ncg     rms          rms(c)
DAV:   1    -0.141363508286E+02    0.50247E-01   -0.44359E-02    16   0.215E+00    0.450E-02
DAV:   2    -0.141364513742E+02   -0.10055E-03   -0.14439E-03    24   0.433E-01    0.200E-02
DAV:   3    -0.141364533560E+02   -0.19817E-05   -0.84013E-06    24   0.253E-02
  168 T=  1818. E= -.13666467E+02 F= -.14136453E+02 E0= -.14136453E+02  EK= 0.46999E+00 SP= 0.00E+00 SK= 0.00E+00
       N       E                     dE             d eps       ncg     rms          rms(c)
DAV:   1    -0.140642040239E+02    0.72247E-01   -0.35063E-02    24   0.199E+00    0.221E-02
DAV:   2    -0.140643540189E+02   -0.15000E-03   -0.14157E-03    32   0.396E-01    0.232E-02
DAV:   3    -0.140643560368E+02   -0.20179E-05   -0.29622E-06    16   0.141E-02
  169 T=  1546. E= -.13664613E+02 F= -.14064356E+02 E0= -.14064356E+02  EK= 0.39974E+00 SP= 0.00E+00 SK= 0.00E+00
       N       E                     dE             d eps       ncg     rms          rms(c)
DAV:   1    -0.139975916724E+02    0.66762E-01   -0.19234E-02    16   0.168E+00    0.281E-02
DAV:   2    -0.139977487396E+02   -0.15707E-03   -0.15176E-03    32   0.414E-01    0.285E-02
DAV:   3    -0.139977518976E+02   -0.31580E-05   -0.54692E-06    32   0.187E-02
  170 T=  1294. E= -.13663222E+02 F= -.13997752E+02 E0= -.13997752E+02  EK= 0.33453E+00 SP= 0.00E+00 SK= 0.00E+00
       N       E                     dE             d eps       ncg     rms          rms(c)
DAV:   1    -0.139571206566E+02    0.40628E-01   -0.85674E-03    16   0.133E+00    0.183E-02
DAV:   2    -0.139572206406E+02   -0.99984E-04   -0.96440E-04    24   0.319E-01
  171 T=  1140. E= -.13662514E+02 F= -.13957221E+02 E0= -.13957221E+02  EK= 0.29471E+00 SP= 0.00E+00 SK= 0.00E+00
       N       E                     dE             d eps       ncg     rms          rms(c)
DAV:   1    -0.139531907852E+02    0.39299E-02   -0.79867E-03    16   0.105E+00    0.284E-02
DAV:   2    -0.139532757945E+02   -0.85009E-04   -0.60643E-04    32   0.252E-01
  172 T=  1125. E= -.13662474E+02 F= -.13953276E+02 E0= -.13953276E+02  EK= 0.29080E+00 SP= 0.00E+00 SK= 0.00E+00
       N       E                     dE             d eps       ncg     rms          rms(c)
DAV:   1    -0.139859998350E+02   -0.32809E-01   -0.18833E-02    16   0.923E-01    0.289E-02
DAV:   2    -0.139860712300E+02   -0.71395E-04   -0.38348E-04    32   0.208E-01
  173 T=  1249. E= -.13663096E+02 F= -.13986071E+02 E0= -.13986071E+02  EK= 0.32298E+00 SP= 0.00E+00 SK= 0.00E+00
       N       E                     dE             d eps       ncg     rms          rms(c)
DAV:   1    -0.140459209905E+02   -0.59921E-01   -0.39171E-02    16   0.101E+00    0.292E-02
DAV:   2    -0.140459694209E+02   -0.48430E-04   -0.45250E-04    32   0.207E-01
  174 T=  1476. E= -.13664282E+02 F= -.14045969E+02 E0= -.14045969E+02  EK= 0.38169E+00 SP= 0.00E+00 SK= 0.00E+00
       N       E                     dE             d eps       ncg     rms          rms(c)
DAV:   1    -0.141147961479E+02   -0.68875E-01   -0.61962E-02    16   0.118E+00    0.271E-02
DAV:   2    -0.141149155569E+02   -0.11941E-03   -0.10625E-03    32   0.288E-01    0.315E-02
DAV:   3    -0.141149164101E+02   -0.85316E-06   -0.12199E-05    16   0.256E-02
  175 T=  1738. E= -.13665630E+02 F= -.14114916E+02 E0= -.14114916E+02  EK= 0.44929E+00 SP= 0.00E+00 SK= 0.00E+00
       N       E                     dE             d eps       ncg     rms          rms(c)
DAV:   1    -0.141702114779E+02   -0.55296E-01   -0.81900E-02    16   0.139E+00    0.464E-02
DAV:   2    -0.141703879500E+02   -0.17647E-03   -0.19036E-03    32   0.382E-01    0.298E-02
DAV:   3    -0.141703912055E+02   -0.32555E-05   -0.32588E-05    16   0.411E-02
  176 T=  1947. E= -.13666965E+02 F= -.14170391E+02 E0= -.14170391E+02  EK= 0.50343E+00 SP= 0.00E+00 SK= 0.00E+00
       N       E                     dE             d eps       ncg     rms          rms(c)
DAV:   1    -0.141908134267E+02   -0.20425E-01   -0.97298E-02    16   0.162E+00    0.324E-02
DAV:   2    -0.141910394276E+02   -0.22600E-03   -0.22822E-03    32   0.442E-01    0.416E-02
DAV:   3    -0.141910306644E+02    0.87632E-05   -0.11111E-05    16   0.263E-02
  177 T=  2024. E= -.13667691E+02 F= -.14191031E+02 E0= -.14191031E+02  EK= 0.52334E+00 SP= 0.00E+00 SK= 0.00E+00
       N       E                     dE             d eps       ncg     rms          rms(c)
DAV:   1    -0.141650818405E+02    0.25958E-01   -0.89372E-02    16   0.168E+00    0.438E-02
DAV:   2    -0.141653033598E+02   -0.22152E-03   -0.25110E-03    16   0.493E-01    0.306E-02
DAV:   3    -0.141653105886E+02   -0.72287E-05   -0.17201E-05    32   0.412E-02
  178 T=  1927. E= -.13667224E+02 F= -.14165311E+02 E0= -.14165311E+02  EK= 0.49809E+00 SP= 0.00E+00 SK= 0.00E+00
       N       E                     dE             d eps       ncg     rms          rms(c)
DAV:   1    -0.141006584535E+02    0.64645E-01   -0.69883E-02    16   0.173E+00    0.576E-02
DAV:   2    -0.141008195964E+02   -0.16114E-03   -0.21933E-03    32   0.449E-01    0.212E-02
DAV:   3    -0.141008240405E+02   -0.44440E-05   -0.59794E-06    16   0.226E-02
  179 T=  1685. E= -.13665334E+02 F= -.14100824E+02 E0= -.14100824E+02  EK= 0.43549E+00 SP= 0.00E+00 SK= 0.00E+00
       N       E                     dE             d eps       ncg     rms          rms(c)
DAV:   1    -0.140289390772E+02    0.71881E-01   -0.48609E-02    16   0.192E+00    0.458E-02
DAV:   2    -0.140290695055E+02   -0.13043E-03   -0.14228E-03    32   0.335E-01    0.227E-02
DAV:   3    -0.140290768033E+02   -0.72978E-05   -0.11306E-05    16   0.351E-02
  180 T=  1418. E= -.13662403E+02 F= -.14029077E+02 E0= -.14029077E+02  EK= 0.36667E+00 SP= 0.00E+00 SK= 0.00E+00
       N       E                     dE             d eps       ncg     rms          rms(c)
DAV:   1    -0.139951413488E+02    0.33928E-01   -0.29136E-02    16   0.200E+00    0.582E-02
DAV:   2    -0.139952712306E+02   -0.12988E-03   -0.13785E-03    32   0.364E-01    0.392E-02
DAV:   3    -0.139952763876E+02   -0.51570E-05   -0.71894E-05    16   0.781E-02
  181 T=  1294. E= -.13660631E+02 F= -.13995276E+02 E0= -.13995276E+02  EK= 0.33465E+00 SP= 0.00E+00 SK= 0.00E+00
       N       E                     dE             d eps       ncg     rms          rms(c)
DAV:   1    -0.140250156277E+02   -0.29744E-01   -0.20152E-02    16   0.192E+00    0.519E-02
DAV:   2    -0.140251758402E+02   -0.16021E-03   -0.17154E-03    32   0.419E-01    0.440E-02
DAV:   3    -0.140251688080E+02    0.70322E-05   -0.27004E-05    16   0.445E-02
  182 T=  1404. E= -.13662103E+02 F= -.14025169E+02 E0= -.14025169E+02  EK= 0.36307E+00 SP= 0.00E+00 SK= 0.00E+00
       N       E                     dE             d eps       ncg     rms          rms(c)
DAV:   1    -0.140965843765E+02   -0.71409E-01   -0.27151E-02    16   0.191E+00    0.417E-02
DAV:   2    -0.140967017245E+02   -0.11735E-03   -0.14185E-03    32   0.423E-01    0.211E-02
DAV:   3    -0.140967069423E+02   -0.52178E-05   -0.61529E-06    16   0.223E-02
  183 T=  1668. E= -.13665585E+02 F= -.14096707E+02 E0= -.14096707E+02  EK= 0.43112E+00 SP= 0.00E+00 SK= 0.00E+00
       N       E                     dE             d eps       ncg     rms          rms(c)
DAV:   1    -0.141570533544E+02   -0.60352E-01   -0.45505E-02    16   0.212E+00    0.288E-02
DAV:   2    -0.141571708031E+02   -0.11745E-03   -0.12108E-03    32   0.408E-01    0.212E-02
DAV:   3    -0.141571716395E+02   -0.83642E-06   -0.56516E-06    16   0.214E-02
  184 T=  1893. E= -.13667907E+02 F= -.14157172E+02 E0= -.14157172E+02  EK= 0.48926E+00 SP= 0.00E+00 SK= 0.00E+00
       N       E                     dE             d eps       ncg     rms          rms(c)
DAV:   1    -0.141686243798E+02   -0.11454E-01   -0.55916E-02    16   0.222E+00    0.423E-02
DAV:   2    -0.141687135607E+02   -0.89181E-04   -0.12672E-03    24   0.437E-01    0.184E-02
DAV:   3    -0.141687149429E+02   -0.13822E-05   -0.43600E-06    32   0.199E-02
  185 T=  1938. E= -.13667786E+02 F= -.14168715E+02 E0= -.14168715E+02  EK= 0.50093E+00 SP= 0.00E+00 SK= 0.00E+00
       N       E                     dE             d eps       ncg     rms          rms(c)
DAV:   1    -0.141292078735E+02    0.39506E-01   -0.54478E-02    32   0.217E+00    0.367E-02
DAV:   2    -0.141292723223E+02   -0.64449E-04   -0.87992E-04    16   0.357E-01
  186 T=  1792. E= -.13666113E+02 F= -.14129272E+02 E0= -.14129272E+02  EK= 0.46316E+00 SP= 0.00E+00 SK= 0.00E+00
       N       E                     dE             d eps       ncg     rms          rms(c)
DAV:   1    -0.140615459444E+02    0.67662E-01   -0.43382E-02    16   0.192E+00    0.421E-02
DAV:   2    -0.140616970976E+02   -0.15115E-03   -0.14745E-03    24   0.399E-01    0.292E-02
DAV:   3    -0.140617006683E+02   -0.35707E-05   -0.93569E-06    24   0.253E-02
  187 T=  1538. E= -.13664160E+02 F= -.14061701E+02 E0= -.14061701E+02  EK= 0.39754E+00 SP= 0.00E+00 SK= 0.00E+00
       N       E                     dE             d eps       ncg     rms          rms(c)
DAV:   1    -0.139948025827E+02    0.66895E-01   -0.29567E-02    16   0.172E+00    0.403E-02
DAV:   2    -0.139949321798E+02   -0.12960E-03   -0.13450E-03    32   0.393E-01    0.331E-02
DAV:   3    -0.139949363174E+02   -0.41376E-05   -0.12262E-05    24   0.313E-02
  188 T=  1285. E= -.13662648E+02 F= -.13994936E+02 E0= -.13994936E+02  EK= 0.33229E+00 SP= 0.00E+00 SK= 0.00E+00
       N       E                     dE             d eps       ncg     rms          rms(c)
DAV:   1    -0.139519266726E+02    0.43006E-01   -0.15439E-02    16   0.134E+00    0.188E-02
DAV:   2    -0.139520598985E+02   -0.13323E-03   -0.12269E-03    24   0.346E-01    0.178E-02
DAV:   3    -0.139520647415E+02   -0.48430E-05   -0.42993E-06    32   0.170E-02
  189 T=  1123. E= -.13661774E+02 F= -.13952065E+02 E0= -.13952065E+02  EK= 0.29029E+00 SP= 0.00E+00 SK= 0.00E+00
       N       E                     dE             d eps       ncg     rms          rms(c)
DAV:   1    -0.139459525410E+02    0.61074E-02   -0.10364E-02    24   0.102E+00    0.207E-02
DAV:   2    -0.139460227218E+02   -0.70181E-04   -0.57428E-04    32   0.235E-01
  190 T=  1100. E= -.13661615E+02 F= -.13946023E+02 E0= -.13946023E+02  EK= 0.28441E+00 SP= 0.00E+00 SK= 0.00E+00
       N       E                     dE             d eps       ncg     rms          rms(c)
DAV:   1    -0.139788525944E+02   -0.32900E-01   -0.16517E-02    16   0.807E-01    0.265E-02
DAV:   2    -0.139789007073E+02   -0.48113E-04   -0.33746E-04    24   0.182E-01
  191 T=  1225. E= -.13662137E+02 F= -.13978901E+02 E0= -.13978901E+02  EK= 0.31676E+00 SP= 0.00E+00 SK= 0.00E+00
       N       E                     dE             d eps       ncg     rms          rms(c)
DAV:   1    -0.140425860546E+02   -0.63733E-01   -0.31960E-02    24   0.883E-01    0.150E-02
DAV:   2    -0.140426237135E+02   -0.37659E-04   -0.32761E-04    24   0.182E-01
  192 T=  1468. E= -.13663236E+02 F= -.14042624E+02 E0= -.14042624E+02  EK= 0.37939E+00 SP= 0.00E+00 SK= 0.00E+00
       N       E                     dE             d eps       ncg     rms          rms(c)
DAV:   1    -0.141199458624E+02   -0.77360E-01   -0.55164E-02    16   0.118E+00    0.257E-02
DAV:   2    -0.141200776031E+02   -0.13174E-03   -0.10376E-03    32   0.315E-01    0.340E-02
DAV:   3    -0.141200784366E+02   -0.83348E-06   -0.40414E-06    16   0.159E-02
  193 T=  1762. E= -.13664591E+02 F= -.14120078E+02 E0= -.14120078E+02  EK= 0.45549E+00 SP= 0.00E+00 SK= 0.00E+00
       N       E                     dE             d eps       ncg     rms          rms(c)
DAV:   1    -0.141876661450E+02   -0.67589E-01   -0.73813E-02    16   0.146E+00    0.384E-02
DAV:   2    -0.141878254555E+02   -0.15931E-03   -0.17457E-03    24   0.409E-01    0.232E-02
DAV:   3    -0.141878247077E+02    0.74788E-06   -0.20519E-05    24   0.326E-02
  194 T=  2018. E= -.13666182E+02 F= -.14187825E+02 E0= -.14187825E+02  EK= 0.52164E+00 SP= 0.00E+00 SK= 0.00E+00
       N       E                     dE             d eps       ncg     rms          rms(c)
DAV:   1    -0.142200702375E+02   -0.32245E-01   -0.94576E-02    16   0.182E+00    0.258E-02
DAV:   2    -0.142203444953E+02   -0.27426E-03   -0.26651E-03    32   0.484E-01    0.458E-02
DAV:   3    -0.142203348921E+02    0.96032E-05   -0.76087E-06    24   0.215E-02
  195 T=  2139. E= -.13667259E+02 F= -.14220335E+02 E0= -.14220335E+02  EK= 0.55308E+00 SP= 0.00E+00 SK= 0.00E+00
       N       E                     dE             d eps       ncg     rms          rms(c)
DAV:   1    -0.141991036249E+02    0.21241E-01   -0.92689E-02    16   0.199E+00    0.371E-02
DAV:   2    -0.141994183495E+02   -0.31472E-03   -0.31253E-03    16   0.549E-01    0.496E-02
DAV:   3    -0.141994127067E+02    0.56428E-05   -0.21660E-05    32   0.459E-02
  196 T=  2059. E= -.13667009E+02 F= -.14199413E+02 E0= -.14199413E+02  EK= 0.53240E+00 SP= 0.00E+00 SK= 0.00E+00
       N       E                     dE             d eps       ncg     rms          rms(c)
DAV:   1    -0.141270441994E+02    0.72374E-01   -0.68960E-02    24   0.183E+00    0.632E-02
DAV:   2    -0.141271817638E+02   -0.13756E-03   -0.25039E-03    24   0.480E-01    0.261E-02
DAV:   3    -0.141271821901E+02   -0.42635E-06   -0.12827E-05    24   0.324E-02
  197 T=  1788. E= -.13664918E+02 F= -.14127182E+02 E0= -.14127182E+02  EK= 0.46226E+00 SP= 0.00E+00 SK= 0.00E+00
       N       E                     dE             d eps       ncg     rms          rms(c)
DAV:   1    -0.140372819639E+02    0.89900E-01   -0.54785E-02    16   0.214E+00    0.757E-02
DAV:   2    -0.140375165391E+02   -0.23458E-03   -0.24863E-03    32   0.460E-01    0.379E-02
DAV:   3    -0.140375383083E+02   -0.21769E-04   -0.16239E-05    16   0.454E-02
  198 T=  1455. E= -.13661318E+02 F= -.14037538E+02 E0= -.14037538E+02  EK= 0.37622E+00 SP= 0.00E+00 SK= 0.00E+00
       N       E                     dE             d eps       ncg     rms          rms(c)
DAV:   1    -0.139861882472E+02    0.51328E-01   -0.26261E-02    24   0.179E+00    0.522E-02
DAV:   2    -0.139863145053E+02   -0.12626E-03   -0.12613E-03    24   0.323E-01    0.307E-02
DAV:   3    -0.139863351888E+02   -0.20684E-04   -0.20129E-05    16   0.429E-02
  199 T=  1266. E= -.13659004E+02 F= -.13986335E+02 E0= -.13986335E+02  EK= 0.32733E+00 SP= 0.00E+00 SK= 0.00E+00
       N       E                     dE             d eps       ncg     rms          rms(c)
DAV:   1    -0.140083957800E+02   -0.22081E-01   -0.12946E-02    32   0.144E+00    0.464E-02
DAV:   2    -0.140084519388E+02   -0.56159E-04   -0.59167E-04    16   0.256E-01
  200 T=  1346. E= -.13660475E+02 F= -.14008452E+02 E0= -.14008452E+02  EK= 0.34798E+00 SP= 0.00E+00 SK= 0.00E+00
       N       E                     dE             d eps       ncg     rms          rms(c)
DAV:   1    -0.140823277817E+02   -0.73932E-01   -0.21388E-02    16   0.159E+00    0.437E-02
DAV:   2    -0.140823792223E+02   -0.51441E-04   -0.79699E-04    32   0.327E-01
  201 T=  1617. E= -.13664246E+02 F= -.14082379E+02 E0= -.14082379E+02  EK= 0.41813E+00 SP= 0.00E+00 SK= 0.00E+00
       N       E                     dE             d eps       ncg     rms          rms(c)
DAV:   1    -0.141503697557E+02   -0.68042E-01   -0.44016E-02    24   0.199E+00    0.434E-02
DAV:   2    -0.141504661294E+02   -0.96374E-04   -0.82733E-04    16   0.342E-01
  202 T=  1871. E= -.13666814E+02 F= -.14150466E+02 E0= -.14150466E+02  EK= 0.48365E+00 SP= 0.00E+00 SK= 0.00E+00
       N       E                     dE             d eps       ncg     rms          rms(c)
DAV:   1    -0.141698037583E+02   -0.19434E-01   -0.57330E-02    16   0.224E+00    0.591E-02
DAV:   2    -0.141698971341E+02   -0.93376E-04   -0.13188E-03    32   0.445E-01    0.305E-02
DAV:   3    -0.141699116579E+02   -0.14524E-04   -0.85257E-06    16   0.279E-02
  203 T=  1946. E= -.13666931E+02 F= -.14169912E+02 E0= -.14169912E+02  EK= 0.50298E+00 SP= 0.00E+00 SK= 0.00E+00
       N       E                     dE             d eps       ncg     rms          rms(c)
DAV:   1    -0.141349044861E+02    0.34993E-01   -0.58634E-02    16   0.226E+00    0.484E-02
DAV:   2    -0.141350281020E+02   -0.12362E-03   -0.16743E-03    24   0.482E-01    0.136E-02
DAV:   3    -0.141350320548E+02   -0.39528E-05   -0.67089E-06    16   0.227E-02
  204 T=  1816. E= -.13665431E+02 F= -.14135032E+02 E0= -.14135032E+02  EK= 0.46960E+00 SP= 0.00E+00 SK= 0.00E+00
       N       E                     dE             d eps       ncg     rms          rms(c)
DAV:   1    -0.140662260134E+02    0.68802E-01   -0.48065E-02    24   0.199E+00    0.287E-02
DAV:   2    -0.140663384042E+02   -0.11239E-03   -0.11315E-03    24   0.361E-01    0.185E-02
DAV:   3    -0.140663435231E+02   -0.51189E-05   -0.49332E-06    24   0.181E-02
  205 T=  1558. E= -.13663483E+02 F= -.14066344E+02 E0= -.14066344E+02  EK= 0.40286E+00 SP= 0.00E+00 SK= 0.00E+00
       N       E                     dE             d eps       ncg     rms          rms(c)
DAV:   1    -0.139918975609E+02    0.74441E-01   -0.36887E-02    16   0.183E+00    0.183E-02
DAV:   2    -0.139920764828E+02   -0.17892E-03   -0.17946E-03    32   0.432E-01    0.273E-02
DAV:   3    -0.139920739597E+02    0.25231E-05   -0.44412E-06    16   0.167E-02
  206 T=  1277. E= -.13661886E+02 F= -.13992074E+02 E0= -.13992074E+02  EK= 0.33019E+00 SP= 0.00E+00 SK= 0.00E+00
       N       E                     dE             d eps       ncg     rms          rms(c)
DAV:   1    -0.139358771252E+02    0.56199E-01   -0.22033E-02    16   0.143E+00    0.347E-02
DAV:   2    -0.139359818351E+02   -0.10471E-03   -0.10398E-03    24   0.342E-01    0.331E-02
DAV:   3    -0.139359877516E+02   -0.59164E-05   -0.12373E-05    24   0.295E-02
  207 T=  1064. E= -.13660871E+02 F= -.13935988E+02 E0= -.13935988E+02  EK= 0.27512E+00 SP= 0.00E+00 SK= 0.00E+00
       N       E                     dE             d eps       ncg     rms          rms(c)
DAV:   1    -0.139129822525E+02    0.23000E-01   -0.16069E-02    24   0.108E+00    0.152E-02
DAV:   2    -0.139130380684E+02   -0.55816E-04   -0.47725E-04    24   0.227E-01
  208 T=   977. E= -.13660537E+02 F= -.13913038E+02 E0= -.13913038E+02  EK= 0.25250E+00 SP= 0.00E+00 SK= 0.00E+00
       N       E                     dE             d eps       ncg     rms          rms(c)
DAV:   1    -0.139282037287E+02   -0.15221E-01   -0.21027E-02    24   0.843E-01    0.193E-02
DAV:   2    -0.139282390387E+02   -0.35310E-04   -0.20909E-04    24   0.145E-01
  209 T=  1035. E= -.13660794E+02 F= -.13928239E+02 E0= -.13928239E+02  EK= 0.26745E+00 SP= 0.00E+00 SK= 0.00E+00
       N       E                     dE             d eps       ncg     rms          rms(c)
DAV:   1    -0.139773637510E+02   -0.49160E-01   -0.34791E-02    16   0.827E-01    0.145E-02
DAV:   2    -0.139773985155E+02   -0.34764E-04   -0.30574E-04    24   0.170E-01
  210 T=  1222. E= -.13661576E+02 F= -.13977399E+02 E0= -.13977399E+02  EK= 0.31582E+00 SP= 0.00E+00 SK= 0.00E+00
       N       E                     dE             d eps       ncg     rms          rms(c)
DAV:   1    -0.140479983365E+02   -0.70635E-01   -0.57077E-02    16   0.108E+00    0.191E-02
DAV:   2    -0.140480925465E+02   -0.94210E-04   -0.80541E-04    24   0.259E-01
  211 T=  1491. E= -.13662678E+02 F= -.14048093E+02 E0= -.14048093E+02  EK= 0.38541E+00 SP= 0.00E+00 SK= 0.00E+00
       N       E                     dE             d eps       ncg     rms          rms(c)
DAV:   1    -0.141215012466E+02   -0.73503E-01   -0.82268E-02    16   0.141E+00    0.412E-02
DAV:   2    -0.141216619304E+02   -0.16068E-03   -0.13894E-03    24   0.355E-01    0.459E-02
DAV:   3    -0.141216590061E+02    0.29243E-05   -0.37157E-06    16   0.172E-02
  212 T=  1771. E= -.13663904E+02 F= -.14121659E+02 E0= -.14121659E+02  EK= 0.45776E+00 SP= 0.00E+00 SK= 0.00E+00
       N       E                     dE             d eps       ncg     rms          rms(c)
DAV:   1    -0.141760078061E+02   -0.54346E-01   -0.93369E-02    16   0.165E+00    0.588E-02
DAV:   2    -0.141761720471E+02   -0.16424E-03   -0.23054E-03    24   0.478E-01    0.197E-02
DAV:   3    -0.141761760296E+02   -0.39824E-05   -0.22252E-05    16   0.352E-02
  213 T=  1977. E= -.13665112E+02 F= -.14176176E+02 E0= -.14176176E+02  EK= 0.51106E+00 SP= 0.00E+00 SK= 0.00E+00
       N       E                     dE             d eps       ncg     rms          rms(c)
DAV:   1    -0.141915701136E+02   -0.15398E-01   -0.10685E-01    16   0.199E+00    0.405E-02
DAV:   2    -0.141919917795E+02   -0.42167E-03   -0.43981E-03    24   0.570E-01    0.534E-02
DAV:   3    -0.141919735556E+02    0.18224E-04   -0.36431E-05    16   0.462E-02
  214 T=  2036. E= -.13665559E+02 F= -.14191974E+02 E0= -.14191974E+02  EK= 0.52641E+00 SP= 0.00E+00 SK= 0.00E+00
       N       E                     dE             d eps       ncg     rms          rms(c)
DAV:   1    -0.141607604809E+02    0.31231E-01   -0.91442E-02    16   0.199E+00    0.473E-02
DAV:   2    -0.141609738079E+02   -0.21333E-03   -0.20743E-03    24   0.440E-01    0.477E-02
DAV:   3    -0.141609752694E+02   -0.14615E-05   -0.57546E-06    24   0.241E-02
  215 T=  1920. E= -.13664630E+02 F= -.14160975E+02 E0= -.14160975E+02  EK= 0.49634E+00 SP= 0.00E+00 SK= 0.00E+00
       N       E                     dE             d eps       ncg     rms          rms(c)
DAV:   1    -0.140974618771E+02    0.63512E-01   -0.62780E-02    16   0.200E+00    0.990E-02
DAV:   2    -0.140974982837E+02   -0.36407E-04   -0.16611E-03    16   0.391E-01    0.413E-02
DAV:   3    -0.140975055716E+02   -0.72879E-05   -0.27131E-05    32   0.576E-02
  216 T=  1684. E= -.13662133E+02 F= -.14097506E+02 E0= -.14097506E+02  EK= 0.43537E+00 SP= 0.00E+00 SK= 0.00E+00
       N       E                     dE             d eps       ncg     rms          rms(c)
DAV:   1    -0.140412197025E+02    0.56279E-01   -0.42210E-02    16   0.231E+00    0.497E-02
DAV:   2    -0.140413783988E+02   -0.15870E-03   -0.14425E-03    24   0.385E-01    0.332E-02
DAV:   3    -0.140413953224E+02   -0.16924E-04   -0.23350E-05    16   0.447E-02
  217 T=  1479. E= -.13659148E+02 F= -.14041395E+02 E0= -.14041395E+02  EK= 0.38225E+00 SP= 0.00E+00 SK= 0.00E+00
       N       E                     dE             d eps       ncg     rms          rms(c)
DAV:   1    -0.140359353108E+02    0.54431E-02   -0.23991E-02    16   0.221E+00    0.608E-02
DAV:   2    -0.140360872741E+02   -0.15196E-03   -0.15280E-03    24   0.395E-01    0.469E-02
DAV:   3    -0.140360899090E+02   -0.26349E-05   -0.58398E-05    16   0.702E-02
  218 T=  1460. E= -.13658676E+02 F= -.14036090E+02 E0= -.14036090E+02  EK= 0.37741E+00 SP= 0.00E+00 SK= 0.00E+00
       N       E                     dE             d eps       ncg     rms          rms(c)
DAV:   1    -0.140874309440E+02   -0.51344E-01   -0.21648E-02    24   0.212E+00    0.479E-02
DAV:   2    -0.140875620707E+02   -0.13113E-03   -0.14872E-03    24   0.405E-01    0.348E-02
DAV:   3    -0.140875622720E+02   -0.20129E-06   -0.14342E-05    32   0.314E-02
  219 T=  1648. E= -.13661539E+02 F= -.14087562E+02 E0= -.14087562E+02  EK= 0.42602E+00 SP= 0.00E+00 SK= 0.00E+00
       N       E                     dE             d eps       ncg     rms          rms(c)
DAV:   1    -0.141537280165E+02   -0.66166E-01   -0.39770E-02    16   0.229E+00    0.382E-02
DAV:   2    -0.141538791370E+02   -0.15112E-03   -0.14806E-03    32   0.431E-01    0.262E-02
DAV:   3    -0.141538861115E+02   -0.69745E-05   -0.73998E-06    16   0.247E-02
  220 T=  1892. E= -.13664823E+02 F= -.14153886E+02 E0= -.14153886E+02  EK= 0.48906E+00 SP= 0.00E+00 SK= 0.00E+00
       N       E                     dE             d eps       ncg     rms          rms(c)
DAV:   1    -0.141846705503E+02   -0.30791E-01   -0.59564E-02    24   0.246E+00    0.409E-02
DAV:   2    -0.141847802665E+02   -0.10972E-03   -0.12510E-03    16   0.417E-01    0.242E-02
DAV:   3    -0.141847846216E+02   -0.43551E-05   -0.77970E-06    24   0.291E-02
  221 T=  2007. E= -.13665946E+02 F= -.14184785E+02 E0= -.14184785E+02  EK= 0.51884E+00 SP= 0.00E+00 SK= 0.00E+00
       N       E                     dE             d eps       ncg     rms          rms(c)
DAV:   1    -0.141602721680E+02    0.24508E-01   -0.67072E-02    16   0.252E+00    0.498E-02
DAV:   2    -0.141604399256E+02   -0.16776E-03   -0.20636E-03    32   0.540E-01    0.257E-02
DAV:   3    -0.141604419242E+02   -0.19986E-05   -0.94909E-06    16   0.259E-02
  222 T=  1917. E= -.13664911E+02 F= -.14160442E+02 E0= -.14160442E+02  EK= 0.49553E+00 SP= 0.00E+00 SK= 0.00E+00
       N       E                     dE             d eps       ncg     rms          rms(c)
DAV:   1    -0.140938080372E+02    0.66632E-01   -0.56782E-02    24   0.217E+00    0.408E-02
DAV:   2    -0.140939013726E+02   -0.93335E-04   -0.12562E-03    16   0.398E-01    0.178E-02
DAV:   3    -0.140939042607E+02   -0.28881E-05   -0.81981E-06    32   0.289E-02
  223 T=  1667. E= -.13663007E+02 F= -.14093904E+02 E0= -.14093904E+02  EK= 0.43090E+00 SP= 0.00E+00 SK= 0.00E+00
       N       E                     dE             d eps       ncg     rms          rms(c)
DAV:   1    -0.140129781686E+02    0.80923E-01   -0.54386E-02    24   0.219E+00    0.317E-02
DAV:   2    -0.140131313882E+02   -0.15322E-03   -0.15029E-03    16   0.401E-01    0.264E-02
DAV:   3    -0.140131328593E+02   -0.14711E-05   -0.79686E-06    24   0.278E-02
  224 T=  1361. E= -.13661199E+02 F= -.14013133E+02 E0= -.14013133E+02  EK= 0.35193E+00 SP= 0.00E+00 SK= 0.00E+00
       N       E                     dE             d eps       ncg     rms          rms(c)
DAV:   1    -0.139452125414E+02    0.67919E-01   -0.34576E-02    24   0.172E+00    0.219E-02
DAV:   2    -0.139453310385E+02   -0.11850E-03   -0.11258E-03    16   0.340E-01    0.202E-02
DAV:   3    -0.139453352765E+02   -0.42379E-05   -0.54308E-06    32   0.230E-02
  225 T=  1104. E= -.13659926E+02 F= -.13945335E+02 E0= -.13945335E+02  EK= 0.28541E+00 SP= 0.00E+00 SK= 0.00E+00
       N       E                     dE             d eps       ncg     rms          rms(c)
DAV:   1    -0.139092882342E+02    0.36043E-01   -0.21090E-02    24   0.128E+00    0.237E-02
DAV:   2    -0.139093770571E+02   -0.88823E-04   -0.86747E-04    16   0.279E-01
  226 T=   967. E= -.13659361E+02 F= -.13909377E+02 E0= -.13909377E+02  EK= 0.25002E+00 SP= 0.00E+00 SK= 0.00E+00
       N       E                     dE             d eps       ncg     rms          rms(c)
DAV:   1    -0.139137720914E+02   -0.44839E-02   -0.18999E-02    16   0.991E-01    0.385E-02
DAV:   2    -0.139138273276E+02   -0.55236E-04   -0.48233E-04    24   0.197E-01
  227 T=   984. E= -.13659465E+02 F= -.13913827E+02 E0= -.13913827E+02  EK= 0.25436E+00 SP= 0.00E+00 SK= 0.00E+00
       N       E                     dE             d eps       ncg     rms          rms(c)
DAV:   1    -0.139572469343E+02   -0.43475E-01   -0.27447E-02    16   0.922E-01    0.134E-02
DAV:   2    -0.139572786306E+02   -0.31696E-04   -0.31631E-04    16   0.175E-01
  228 T=  1149. E= -.13660159E+02 F= -.13957279E+02 E0= -.13957279E+02  EK= 0.29712E+00 SP= 0.00E+00 SK= 0.00E+00
       N       E                     dE             d eps       ncg     rms          rms(c)
DAV:   1    -0.140289620030E+02   -0.71715E-01   -0.42943E-02    16   0.115E+00    0.256E-02
DAV:   2    -0.140290440300E+02   -0.82027E-04   -0.78467E-04    16   0.279E-01
  229 T=  1422. E= -.13661302E+02 F= -.14029044E+02 E0= -.14029044E+02  EK= 0.36774E+00 SP= 0.00E+00 SK= 0.00E+00
       N       E                     dE             d eps       ncg     rms          rms(c)
DAV:   1    -0.141100180288E+02   -0.81056E-01   -0.63488E-02    16   0.147E+00    0.313E-02
DAV:   2    -0.141101495091E+02   -0.13148E-03   -0.11078E-03    32   0.352E-01    0.364E-02
DAV:   3    -0.141101386036E+02    0.10905E-04   -0.88840E-06    16   0.264E-02
  230 T=  1731. E= -.13662733E+02 F= -.14110139E+02 E0= -.14110139E+02  EK= 0.44741E+00 SP= 0.00E+00 SK= 0.00E+00
       N       E                     dE             d eps       ncg     rms          rms(c)
DAV:   1    -0.141751215662E+02   -0.64972E-01   -0.77362E-02    16   0.177E+00    0.316E-02
DAV:   2    -0.141753039880E+02   -0.18242E-03   -0.18377E-03    32   0.451E-01    0.221E-02
DAV:   3    -0.141753038835E+02    0.10456E-06   -0.10297E-05    16   0.235E-02
  231 T=  1976. E= -.13664454E+02 F= -.14175304E+02 E0= -.14175304E+02  EK= 0.51085E+00 SP= 0.00E+00 SK= 0.00E+00
       N       E                     dE             d eps       ncg     rms          rms(c)
DAV:   1    -0.141975816135E+02   -0.22278E-01   -0.89628E-02    32   0.213E+00    0.245E-02
DAV:   2    -0.141977401470E+02   -0.15853E-03   -0.15081E-03    16   0.372E-01    0.283E-02
DAV:   3    -0.141977384252E+02    0.17218E-05   -0.57377E-06    32   0.259E-02
  232 T=  2058. E= -.13665593E+02 F= -.14197738E+02 E0= -.14197738E+02  EK= 0.53215E+00 SP= 0.00E+00 SK= 0.00E+00
       N       E                     dE             d eps       ncg     rms          rms(c)
DAV:   1    -0.141615923103E+02    0.36148E-01   -0.79252E-02    16   0.226E+00    0.451E-02
DAV:   2    -0.141619382020E+02   -0.34589E-03   -0.38051E-03    24   0.597E-01    0.375E-02
DAV:   3    -0.141619340722E+02    0.41298E-05   -0.14107E-05    16   0.327E-02
  233 T=  1923. E= -.13664898E+02 F= -.14161934E+02 E0= -.14161934E+02  EK= 0.49704E+00 SP= 0.00E+00 SK= 0.00E+00
       N       E                     dE             d eps       ncg     rms          rms(c)
DAV:   1    -0.140817824313E+02    0.80156E-01   -0.54413E-02    16   0.214E+00    0.621E-02
DAV:   2    -0.140819388788E+02   -0.15645E-03   -0.21546E-03    24   0.462E-01    0.259E-02
DAV:   3    -0.140819375795E+02    0.12993E-05   -0.88818E-06    16   0.336E-02
  234 T=  1626. E= -.13661695E+02 F= -.14081938E+02 E0= -.14081938E+02  EK= 0.42024E+00 SP= 0.00E+00 SK= 0.00E+00
       N       E                     dE             d eps       ncg     rms          rms(c)
DAV:   1    -0.140096542363E+02    0.72285E-01   -0.34104E-02    16   0.220E+00    0.667E-02
DAV:   2    -0.140099440972E+02   -0.28986E-03   -0.27943E-03    24   0.464E-01    0.392E-02
DAV:   3    -0.140099743885E+02   -0.30291E-04   -0.16089E-05    32   0.410E-02
  235 T=  1362. E= -.13657751E+02 F= -.14009974E+02 E0= -.14009974E+02  EK= 0.35222E+00 SP= 0.00E+00 SK= 0.00E+00
       N       E                     dE             d eps       ncg     rms          rms(c)
DAV:   1    -0.140050898055E+02    0.48543E-02   -0.14054E-02    16   0.161E+00    0.543E-02
DAV:   2    -0.140052094377E+02   -0.11963E-03   -0.12335E-03    24   0.326E-01    0.382E-02
DAV:   3    -0.140052144992E+02   -0.50616E-05   -0.53077E-05    16   0.623E-02
  236 T=  1346. E= -.13657301E+02 F= -.14005214E+02 E0= -.14005214E+02  EK= 0.34791E+00 SP= 0.00E+00 SK= 0.00E+00
       N       E                     dE             d eps       ncg     rms          rms(c)
DAV:   1    -0.140747832544E+02   -0.69574E-01   -0.17216E-02    16   0.136E+00    0.345E-02
DAV:   2    -0.140748638429E+02   -0.80589E-04   -0.87270E-04    32   0.325E-01
  237 T=  1601. E= -.13660931E+02 F= -.14074864E+02 E0= -.14074864E+02  EK= 0.41393E+00 SP= 0.00E+00 SK= 0.00E+00
       N       E                     dE             d eps       ncg     rms          rms(c)
DAV:   1    -0.141645609054E+02   -0.89778E-01   -0.41497E-02    16   0.168E+00    0.496E-02
DAV:   2    -0.141646543200E+02   -0.93415E-04   -0.66500E-04    24   0.323E-01
  238 T=  1934. E= -.13664683E+02 F= -.14164654E+02 E0= -.14164654E+02  EK= 0.49997E+00 SP= 0.00E+00 SK= 0.00E+00
       N       E                     dE             d eps       ncg     rms          rms(c)
DAV:   1    -0.142137884590E+02   -0.49228E-01   -0.63184E-02    16   0.202E+00    0.619E-02
DAV:   2    -0.142138653815E+02   -0.76922E-04   -0.14117E-03    32   0.450E-01    0.245E-02
DAV:   3    -0.142138751550E+02   -0.97736E-05   -0.74602E-06    16   0.250E-02
  239 T=  2120. E= -.13665882E+02 F= -.14213875E+02 E0= -.14213875E+02  EK= 0.54799E+00 SP= 0.00E+00 SK= 0.00E+00
       N       E                     dE             d eps       ncg     rms          rms(c)
DAV:   1    -0.141999187681E+02    0.13947E-01   -0.72914E-02    16   0.214E+00    0.476E-02
DAV:   2    -0.142000537669E+02   -0.13500E-03   -0.17754E-03    24   0.499E-01    0.193E-02
DAV:   3    -0.142000549334E+02   -0.11665E-05   -0.80284E-06    32   0.261E-02
  240 T=  2071. E= -.13664690E+02 F= -.14200055E+02 E0= -.14200055E+02  EK= 0.53536E+00 SP= 0.00E+00 SK= 0.00E+00
       N       E                     dE             d eps       ncg     rms          rms(c)
DAV:   1    -0.141373528001E+02    0.62701E-01   -0.63298E-02    16   0.196E+00    0.528E-02
DAV:   2    -0.141374664121E+02   -0.11361E-03   -0.17113E-03    32   0.477E-01    0.220E-02
DAV:   3    -0.141374689860E+02   -0.25739E-05   -0.93369E-06    16   0.269E-02
  241 T=  1837. E= -.13662685E+02 F= -.14137469E+02 E0= -.14137469E+02  EK= 0.47478E+00 SP= 0.00E+00 SK= 0.00E+00
       N       E                     dE             d eps       ncg     rms          rms(c)
DAV:   1    -0.140549585757E+02    0.82508E-01   -0.58011E-02    24   0.191E+00    0.266E-02
DAV:   2    -0.140551112995E+02   -0.15272E-03   -0.15845E-03    16   0.393E-01    0.269E-02
DAV:   3    -0.140551111808E+02    0.11872E-06   -0.12315E-05    32   0.330E-02
  242 T=  1525. E= -.13660837E+02 F= -.14055111E+02 E0= -.14055111E+02  EK= 0.39427E+00 SP= 0.00E+00 SK= 0.00E+00
       N       E                     dE             d eps       ncg     rms          rms(c)
DAV:   1    -0.139804506193E+02    0.74661E-01   -0.35325E-02    16   0.145E+00    0.389E-02
DAV:   2    -0.139805879086E+02   -0.13729E-03   -0.13394E-03    32   0.364E-01    0.377E-02
DAV:   3    -0.139805909237E+02   -0.30151E-05   -0.20778E-05    16   0.349E-02
  243 T=  1242. E= -.13659504E+02 F= -.13980591E+02 E0= -.13980591E+02  EK= 0.32109E+00 SP= 0.00E+00 SK= 0.00E+00
       N       E                     dE             d eps       ncg     rms          rms(c)
DAV:   1    -0.139333748694E+02    0.47213E-01   -0.18923E-02    16   0.103E+00    0.161E-02
DAV:   2    -0.139334492276E+02   -0.74358E-04   -0.67687E-04    32   0.246E-01
  244 T=  1062. E= -.13658854E+02 F= -.13933449E+02 E0= -.13933449E+02  EK= 0.27459E+00 SP= 0.00E+00 SK= 0.00E+00
       N       E                     dE             d eps       ncg     rms          rms(c)
DAV:   1    -0.139233078029E+02    0.10067E-01   -0.13913E-02    32   0.797E-01    0.477E-02
DAV:   2    -0.139233181934E+02   -0.10391E-04   -0.27261E-04    16   0.147E-01
  245 T=  1023. E= -.13658798E+02 F= -.13923318E+02 E0= -.13923318E+02  EK= 0.26452E+00 SP= 0.00E+00 SK= 0.00E+00
       N       E                     dE             d eps       ncg     rms          rms(c)
DAV:   1    -0.139505999691E+02   -0.27292E-01   -0.19864E-02    16   0.872E-01    0.244E-02
DAV:   2    -0.139506330638E+02   -0.33095E-04   -0.40143E-04    32   0.209E-01
  246 T=  1127. E= -.13659308E+02 F= -.13950633E+02 E0= -.13950633E+02  EK= 0.29132E+00 SP= 0.00E+00 SK= 0.00E+00
       N       E                     dE             d eps       ncg     rms          rms(c)
DAV:   1    -0.140070946131E+02   -0.56495E-01   -0.31710E-02    16   0.115E+00    0.275E-02
DAV:   2    -0.140071692916E+02   -0.74678E-04   -0.78822E-04    32   0.282E-01
  247 T=  1342. E= -.13660252E+02 F= -.14007169E+02 E0= -.14007169E+02  EK= 0.34692E+00 SP= 0.00E+00 SK= 0.00E+00
       N       E                     dE             d eps       ncg     rms          rms(c)
DAV:   1    -0.140768930713E+02   -0.69798E-01   -0.52084E-02    16   0.151E+00    0.260E-02
DAV:   2    -0.140770161418E+02   -0.12307E-03   -0.10921E-03    32   0.336E-01    0.316E-02
DAV:   3    -0.140770118958E+02    0.42461E-05   -0.10679E-06    16   0.979E-03
  248 T=  1607. E= -.13661517E+02 F= -.14077012E+02 E0= -.14077012E+02  EK= 0.41549E+00 SP= 0.00E+00 SK= 0.00E+00
       N       E                     dE             d eps       ncg     rms          rms(c)
DAV:   1    -0.141382408687E+02   -0.61225E-01   -0.69145E-02    32   0.182E+00    0.208E-02
DAV:   2    -0.141383874296E+02   -0.14656E-03   -0.13055E-03    16   0.371E-01    0.207E-02
DAV:   3    -0.141383914580E+02   -0.40284E-05   -0.79872E-06    32   0.265E-02
  249 T=  1839. E= -.13662996E+02 F= -.14138391E+02 E0= -.14138391E+02  EK= 0.47540E+00 SP= 0.00E+00 SK= 0.00E+00
       N       E                     dE             d eps       ncg     rms          rms(c)
DAV:   1    -0.141675719685E+02   -0.29185E-01   -0.76634E-02    16   0.211E+00    0.416E-02
DAV:   2    -0.141678880189E+02   -0.31605E-03   -0.34079E-03    24   0.580E-01    0.387E-02
DAV:   3    -0.141678774903E+02    0.10529E-04   -0.32401E-05    32   0.430E-02
  250 T=  1949. E= -.13664056E+02 F= -.14167877E+02 E0= -.14167877E+02  EK= 0.50382E+00 SP= 0.00E+00 SK= 0.00E+00
       N       E                     dE             d eps       ncg     rms          rms(c)
DAV:   1    -0.141493139441E+02    0.18574E-01   -0.75524E-02    16   0.224E+00    0.335E-02
DAV:   2    -0.141496818715E+02   -0.36793E-03   -0.35246E-03    24   0.568E-01    0.544E-02
DAV:   3    -0.141496722280E+02    0.96435E-05   -0.56796E-06    32   0.220E-02
  251 T=  1880. E= -.13663650E+02 F= -.14149672E+02 E0= -.14149672E+02  EK= 0.48602E+00 SP= 0.00E+00 SK= 0.00E+00
       N       E                     dE             d eps       ncg     rms          rms(c)
DAV:   1    -0.140897422661E+02    0.59940E-01   -0.51325E-02    16   0.205E+00    0.893E-02
DAV:   2    -0.140898076317E+02   -0.65366E-04   -0.25593E-03    24   0.508E-01    0.276E-02
DAV:   3    -0.140898117563E+02   -0.41246E-05   -0.86568E-06    16   0.321E-02
  252 T=  1658. E= -.13661206E+02 F= -.14089812E+02 E0= -.14089812E+02  EK= 0.42861E+00 SP= 0.00E+00 SK= 0.00E+00
       N       E                     dE             d eps       ncg     rms          rms(c)
DAV:   1    -0.140260697426E+02    0.63738E-01   -0.36011E-02    16   0.223E+00    0.692E-02
DAV:   2    -0.140263048230E+02   -0.23508E-03   -0.23761E-03    32   0.444E-01    0.403E-02
DAV:   3    -0.140263241546E+02   -0.19332E-04   -0.17463E-05    16   0.414E-02
  253 T=  1426. E= -.13657647E+02 F= -.14026324E+02 E0= -.14026324E+02  EK= 0.36868E+00 SP= 0.00E+00 SK= 0.00E+00
       N       E                     dE             d eps       ncg     rms          rms(c)
DAV:   1    -0.140121671382E+02    0.14138E-01   -0.18540E-02    24   0.198E+00    0.580E-02
DAV:   2    -0.140122673524E+02   -0.10021E-03   -0.11564E-03    16   0.324E-01    0.348E-02
DAV:   3    -0.140122827081E+02   -0.15356E-04   -0.55398E-05    32   0.642E-02
  254 T=  1377. E= -.13656183E+02 F= -.14012283E+02 E0= -.14012283E+02  EK= 0.35610E+00 SP= 0.00E+00 SK= 0.00E+00
       N       E                     dE             d eps       ncg     rms          rms(c)
DAV:   1    -0.140682032338E+02   -0.55936E-01   -0.15630E-02    24   0.182E+00    0.534E-02
DAV:   2    -0.140683299840E+02   -0.12675E-03   -0.12596E-03    24   0.355E-01    0.448E-02
DAV:   3    -0.140683317782E+02   -0.17942E-05   -0.28070E-05    32   0.446E-02
  255 T=  1585. E= -.13658653E+02 F= -.14068332E+02 E0= -.14068332E+02  EK= 0.40968E+00 SP= 0.00E+00 SK= 0.00E+00
       N       E                     dE             d eps       ncg     rms          rms(c)
DAV:   1    -0.141577721934E+02   -0.89442E-01   -0.34752E-02    32   0.206E+00    0.508E-02
DAV:   2    -0.141578432934E+02   -0.71100E-04   -0.99603E-04    24   0.350E-01
  256 T=  1916. E= -.13662639E+02 F= -.14157843E+02 E0= -.14157843E+02  EK= 0.49520E+00 SP= 0.00E+00 SK= 0.00E+00
       N       E                     dE             d eps       ncg     rms          rms(c)
DAV:   1    -0.142208056292E+02   -0.63033E-01   -0.63068E-02    24   0.238E+00    0.720E-02
DAV:   2    -0.142209547482E+02   -0.14912E-03   -0.12245E-03    32   0.396E-01    0.494E-02
DAV:   3    -0.142210010061E+02   -0.46258E-04   -0.36800E-05    16   0.581E-02
  257 T=  2152. E= -.13664722E+02 F= -.14221001E+02 E0= -.14221001E+02  EK= 0.55628E+00 SP= 0.00E+00 SK= 0.00E+00
       N       E                     dE             d eps       ncg     rms          rms(c)
DAV:   1    -0.142240269473E+02   -0.30722E-02   -0.88832E-02    32   0.269E+00    0.446E-02
DAV:   2    -0.142241511537E+02   -0.12421E-03   -0.14794E-03    16   0.420E-01    0.174E-02
DAV:   3    -0.142241580408E+02   -0.68871E-05   -0.87854E-06    32   0.304E-02
  258 T=  2166. E= -.13664284E+02 F= -.14224158E+02 E0= -.14224158E+02  EK= 0.55987E+00 SP= 0.00E+00 SK= 0.00E+00
       N       E                     dE             d eps       ncg     rms          rms(c)
DAV:   1    -0.141710015193E+02    0.53150E-01   -0.13389E-01    16   0.390E+00    0.101E-01
DAV:   2    -0.141713004834E+02   -0.29896E-03   -0.38894E-03    32   0.637E-01    0.511E-02
DAV:   3    -0.141713132658E+02   -0.12782E-04   -0.41884E-05    32   0.506E-02
  259 T=  1968. E= -.13662482E+02 F= -.14171313E+02 E0= -.14171313E+02  EK= 0.50883E+00 SP= 0.00E+00 SK= 0.00E+00
       N       E                     dE             d eps       ncg     rms          rms(c)
DAV:   1    -0.140876970368E+02    0.83603E-01   -0.21348E-01    16   0.441E+00    0.870E-02
DAV:   2    -0.140883495176E+02   -0.65248E-03   -0.63550E-03    32   0.717E-01    0.839E-02
DAV:   3    -0.140883145641E+02    0.34954E-04   -0.60030E-05    16   0.590E-02
  260 T=  1655. E= -.13660394E+02 F= -.14088315E+02 E0= -.14088315E+02  EK= 0.42792E+00 SP= 0.00E+00 SK= 0.00E+00
       N       E                     dE             d eps       ncg     rms          rms(c)
DAV:   1    -0.140041102154E+02    0.84239E-01   -0.69165E-02    24   0.214E+00    0.622E-02
DAV:   2    -0.140042926997E+02   -0.18248E-03   -0.15760E-03    32   0.394E-01    0.443E-02
DAV:   3    -0.140043172158E+02   -0.24516E-04   -0.19614E-05    32   0.363E-02
  261 T=  1337. E= -.13658607E+02 F= -.14004317E+02 E0= -.14004317E+02  EK= 0.34571E+00 SP= 0.00E+00 SK= 0.00E+00
       N       E                     dE             d eps       ncg     rms          rms(c)
DAV:   1    -0.139426092655E+02    0.61683E-01   -0.49361E-02    16   0.161E+00    0.344E-02
DAV:   2    -0.139427363891E+02   -0.12712E-03   -0.13719E-03    32   0.363E-01    0.219E-02
DAV:   3    -0.139427424933E+02   -0.61042E-05   -0.75738E-05    32   0.611E-02
  262 T=  1103. E= -.13657702E+02 F= -.13942742E+02 E0= -.13942742E+02  EK= 0.28504E+00 SP= 0.00E+00 SK= 0.00E+00
       N       E                     dE             d eps       ncg     rms          rms(c)
DAV:   1    -0.139175941012E+02    0.25142E-01   -0.27150E-02    24   0.109E+00    0.242E-02
DAV:   2    -0.139176394504E+02   -0.45349E-04   -0.39645E-04    32   0.180E-01
  263 T=  1007. E= -.13657426E+02 F= -.13917639E+02 E0= -.13917639E+02  EK= 0.26021E+00 SP= 0.00E+00 SK= 0.00E+00
       N       E                     dE             d eps       ncg     rms          rms(c)
DAV:   1    -0.139333987344E+02   -0.15805E-01   -0.23639E-02    16   0.105E+00    0.295E-02
DAV:   2    -0.139334624436E+02   -0.63709E-04   -0.46622E-04    32   0.190E-01
  264 T=  1067. E= -.13657668E+02 F= -.13933462E+02 E0= -.13933462E+02  EK= 0.27579E+00 SP= 0.00E+00 SK= 0.00E+00
       N       E                     dE             d eps       ncg     rms          rms(c)
DAV:   1    -0.139855544426E+02   -0.52156E-01   -0.29084E-02    16   0.119E+00    0.299E-02
DAV:   2    -0.139856156090E+02   -0.61166E-04   -0.51657E-04    32   0.239E-01
  265 T=  1265. E= -.13658484E+02 F= -.13985616E+02 E0= -.13985616E+02  EK= 0.32713E+00 SP= 0.00E+00 SK= 0.00E+00
       N       E                     dE             d eps       ncg     rms          rms(c)
DAV:   1    -0.140603251255E+02   -0.74771E-01   -0.44469E-02    16   0.149E+00    0.205E-02
DAV:   2    -0.140604457851E+02   -0.12066E-03   -0.10616E-03    32   0.329E-01    0.293E-02
DAV:   3    -0.140604450003E+02    0.78485E-06   -0.11886E-06    16   0.996E-03
  266 T=  1550. E= -.13659845E+02 F= -.14060445E+02 E0= -.14060445E+02  EK= 0.40060E+00 SP= 0.00E+00 SK= 0.00E+00
       N       E                     dE             d eps       ncg     rms          rms(c)
DAV:   1    -0.141355653662E+02   -0.75120E-01   -0.60438E-02    16   0.181E+00    0.252E-02
DAV:   2    -0.141357249172E+02   -0.15955E-03   -0.15265E-03    24   0.408E-01    0.208E-02
DAV:   3    -0.141357279627E+02   -0.30455E-05   -0.63850E-06    24   0.196E-02
  267 T=  1834. E= -.13661644E+02 F= -.14135728E+02 E0= -.14135728E+02  EK= 0.47408E+00 SP= 0.00E+00 SK= 0.00E+00
       N       E                     dE             d eps       ncg     rms          rms(c)
DAV:   1    -0.141826230288E+02   -0.46898E-01   -0.77384E-02    16   0.218E+00    0.226E-02
DAV:   2    -0.141828878525E+02   -0.26482E-03   -0.25713E-03    16   0.519E-01    0.351E-02
DAV:   3    -0.141828852111E+02    0.26413E-05   -0.14756E-05    32   0.368E-02
  268 T=  2009. E= -.13663400E+02 F= -.14182885E+02 E0= -.14182885E+02  EK= 0.51949E+00 SP= 0.00E+00 SK= 0.00E+00
       N       E                     dE             d eps       ncg     rms          rms(c)
DAV:   1    -0.141746179647E+02    0.82699E-02   -0.79630E-02    16   0.240E+00    0.360E-02
DAV:   2    -0.141749334882E+02   -0.31552E-03   -0.31849E-03    32   0.577E-01    0.473E-02
DAV:   3    -0.141749278270E+02    0.56612E-05   -0.71841E-06    16   0.249E-02
  269 T=  1976. E= -.13663976E+02 F= -.14174928E+02 E0= -.14174928E+02  EK= 0.51095E+00 SP= 0.00E+00 SK= 0.00E+00
       N       E                     dE             d eps       ncg     rms          rms(c)
DAV:   1    -0.141040972682E+02    0.70836E-01   -0.66005E-02    16   0.246E+00    0.478E-02
DAV:   2    -0.141044585278E+02   -0.36126E-03   -0.40503E-03    32   0.600E-01    0.420E-02
DAV:   3    -0.141044496224E+02    0.89054E-05   -0.19151E-05    16   0.354E-02
  270 T=  1712. E= -.13661932E+02 F= -.14104450E+02 E0= -.14104450E+02  EK= 0.44252E+00 SP= 0.00E+00 SK= 0.00E+00
       N       E                     dE             d eps       ncg     rms          rms(c)
DAV:   1    -0.140055304093E+02    0.98928E-01   -0.54798E-02    16   0.261E+00    0.107E-01
DAV:   2    -0.140057364894E+02   -0.20608E-03   -0.37017E-03    24   0.597E-01    0.487E-02
DAV:   3    -0.140057357780E+02    0.71140E-06   -0.23463E-05    32   0.530E-02
  271 T=  1348. E= -.13657305E+02 F= -.14005736E+02 E0= -.14005736E+02  EK= 0.34843E+00 SP= 0.00E+00 SK= 0.00E+00
       N       E                     dE             d eps       ncg     rms          rms(c)
DAV:   1    -0.139496612047E+02    0.56075E-01   -0.26843E-02    24   0.210E+00    0.543E-02
DAV:   2    -0.139498302273E+02   -0.16902E-03   -0.16788E-03    16   0.380E-01    0.334E-02
DAV:   3    -0.139498490383E+02   -0.18811E-04   -0.13235E-05    32   0.353E-02
  272 T=  1145. E= -.13653944E+02 F= -.13949849E+02 E0= -.13949849E+02  EK= 0.29591E+00 SP= 0.00E+00 SK= 0.00E+00
       N       E                     dE             d eps       ncg     rms          rms(c)
DAV:   1    -0.139859308298E+02   -0.36101E-01   -0.20562E-02    32   0.145E+00    0.367E-02
DAV:   2    -0.139860006553E+02   -0.69825E-04   -0.74363E-04    16   0.258E-01
  273 T=  1277. E= -.13655816E+02 F= -.13986001E+02 E0= -.13986001E+02  EK= 0.33018E+00 SP= 0.00E+00 SK= 0.00E+00
       N       E                     dE             d eps       ncg     rms          rms(c)
DAV:   1    -0.140866352610E+02   -0.10070E+00   -0.42333E-02    32   0.144E+00    0.485E-02
DAV:   2    -0.140866826657E+02   -0.47405E-04   -0.56803E-04    24   0.264E-01
  274 T=  1648. E= -.13660673E+02 F= -.14086683E+02 E0= -.14086683E+02  EK= 0.42601E+00 SP= 0.00E+00 SK= 0.00E+00
       N       E                     dE             d eps       ncg     rms          rms(c)
DAV:   1    -0.141778862167E+02   -0.91251E-01   -0.76860E-02    16   0.181E+00    0.558E-02
DAV:   2    -0.141779898810E+02   -0.10366E-03   -0.11091E-03    32   0.398E-01    0.328E-02
DAV:   3    -0.141780031973E+02   -0.13316E-04   -0.80667E-06    32   0.281E-02
  275 T=  1989. E= -.13663698E+02 F= -.14178003E+02 E0= -.14178003E+02  EK= 0.51431E+00 SP= 0.00E+00 SK= 0.00E+00
       N       E                     dE             d eps       ncg     rms          rms(c)
DAV:   1    -0.142096084077E+02   -0.31619E-01   -0.10187E-01    32   0.207E+00    0.485E-02
DAV:   2    -0.142096584337E+02   -0.50026E-04   -0.80291E-04    16   0.308E-01
  276 T=  2112. E= -.13663604E+02 F= -.14209658E+02 E0= -.14209658E+02  EK= 0.54605E+00 SP= 0.00E+00 SK= 0.00E+00
       N       E                     dE             d eps       ncg     rms          rms(c)
DAV:   1    -0.141781206943E+02    0.31488E-01   -0.10806E-01    16   0.226E+00    0.771E-02
DAV:   2    -0.141782743879E+02   -0.15369E-03   -0.20387E-03    32   0.511E-01    0.369E-02
DAV:   3    -0.141782814393E+02   -0.70514E-05   -0.16224E-05    24   0.393E-02
  277 T=  1998. E= -.13661816E+02 F= -.14178281E+02 E0= -.14178281E+02  EK= 0.51647E+00 SP= 0.00E+00 SK= 0.00E+00
       N       E                     dE             d eps       ncg     rms          rms(c)
DAV:   1    -0.141088156991E+02    0.69459E-01   -0.11414E-01    32   0.218E+00    0.668E-02
DAV:   2    -0.141089126306E+02   -0.96932E-04   -0.99354E-04    16   0.324E-01
  278 T=  1738. E= -.13659675E+02 F= -.14108913E+02 E0= -.14108913E+02  EK= 0.44924E+00 SP= 0.00E+00 SK= 0.00E+00
       N       E                     dE             d eps       ncg     rms          rms(c)
DAV:   1    -0.140319741566E+02    0.76842E-01   -0.85204E-02    32   0.184E+00    0.376E-02
DAV:   2    -0.140320606023E+02   -0.86446E-04   -0.72428E-04    16   0.284E-01
  279 T=  1448. E= -.13657835E+02 F= -.14032061E+02 E0= -.14032061E+02  EK= 0.37423E+00 SP= 0.00E+00 SK= 0.00E+00
       N       E                     dE             d eps       ncg     rms          rms(c)
DAV:   1    -0.139724934213E+02    0.59481E-01   -0.51489E-02    24   0.133E+00    0.488E-02
DAV:   2    -0.139726076271E+02   -0.11421E-03   -0.86926E-04    16   0.293E-01    0.356E-02
DAV:   3    -0.139726542253E+02   -0.46598E-04   -0.31438E-05    24   0.595E-02
  280 T=  1222. E= -.13656798E+02 F= -.13972654E+02 E0= -.13972654E+02  EK= 0.31586E+00 SP= 0.00E+00 SK= 0.00E+00
       N       E                     dE             d eps       ncg     rms          rms(c)
DAV:   1    -0.139459657608E+02    0.26642E-01   -0.30386E-02    16   0.111E+00    0.202E-02
DAV:   2    -0.139460463602E+02   -0.80599E-04   -0.72352E-04    32   0.241E-01
  281 T=  1120. E= -.13656492E+02 F= -.13946046E+02 E0= -.13946046E+02  EK= 0.28955E+00 SP= 0.00E+00 SK= 0.00E+00
       N       E                     dE             d eps       ncg     rms          rms(c)
DAV:   1    -0.139575551088E+02   -0.11589E-01   -0.21057E-02    24   0.109E+00    0.114E-02
DAV:   2    -0.139576400016E+02   -0.84893E-04   -0.41753E-04    16   0.209E-01
  282 T=  1164. E= -.13656623E+02 F= -.13957640E+02 E0= -.13957640E+02  EK= 0.30102E+00 SP= 0.00E+00 SK= 0.00E+00
       N       E                     dE             d eps       ncg     rms          rms(c)
DAV:   1    -0.140038058502E+02   -0.46251E-01   -0.24539E-02    16   0.133E+00    0.233E-02
DAV:   2    -0.140039559666E+02   -0.15012E-03   -0.45080E-04    24   0.221E-01    0.187E-02
DAV:   3    -0.140040388027E+02   -0.82836E-04   -0.48142E-06    24   0.177E-02
  283 T=  1341. E= -.13657339E+02 F= -.14004039E+02 E0= -.14004039E+02  EK= 0.34670E+00 SP= 0.00E+00 SK= 0.00E+00
       N       E                     dE             d eps       ncg     rms          rms(c)
DAV:   1    -0.140726418352E+02   -0.68686E-01   -0.37987E-02    24   0.169E+00    0.311E-02
DAV:   2    -0.140727391564E+02   -0.97321E-04   -0.59787E-04    16   0.268E-01
  284 T=  1601. E= -.13658730E+02 F= -.14072739E+02 E0= -.14072739E+02  EK= 0.41401E+00 SP= 0.00E+00 SK= 0.00E+00
       N       E                     dE             d eps       ncg     rms          rms(c)
DAV:   1    -0.141417487945E+02   -0.69107E-01   -0.55515E-02    24   0.207E+00    0.237E-02
DAV:   2    -0.141419723392E+02   -0.22354E-03   -0.10468E-03    16   0.363E-01    0.276E-02
DAV:   3    -0.141420101298E+02   -0.37791E-04   -0.86002E-06    32   0.252E-02
  285 T=  1864. E= -.13660218E+02 F= -.14142010E+02 E0= -.14142010E+02  EK= 0.48179E+00 SP= 0.00E+00 SK= 0.00E+00
       N       E                     dE             d eps       ncg     rms          rms(c)
DAV:   1    -0.141847563862E+02   -0.42784E-01   -0.70639E-02    16   0.236E+00    0.358E-02
DAV:   2    -0.141850238602E+02   -0.26747E-03   -0.22244E-03    24   0.496E-01    0.307E-02
DAV:   3    -0.141850406347E+02   -0.16774E-04   -0.25377E-05    16   0.365E-02
  286 T=  2023. E= -.13662119E+02 F= -.14185041E+02 E0= -.14185041E+02  EK= 0.52292E+00 SP= 0.00E+00 SK= 0.00E+00
       N       E                     dE             d eps       ncg     rms          rms(c)
DAV:   1    -0.141752670186E+02    0.97568E-02   -0.80727E-02    16   0.262E+00    0.218E-02
DAV:   2    -0.141756082783E+02   -0.34126E-03   -0.31060E-03    32   0.565E-01    0.454E-02
DAV:   3    -0.141756039949E+02    0.42833E-05   -0.20253E-06    16   0.141E-02
  287 T=  1984. E= -.13662705E+02 F= -.14175604E+02 E0= -.14175604E+02  EK= 0.51290E+00 SP= 0.00E+00 SK= 0.00E+00
       N       E                     dE             d eps       ncg     rms          rms(c)
DAV:   1    -0.141059395273E+02    0.69669E-01   -0.74739E-02    32   0.268E+00    0.513E-02
DAV:   2    -0.141061486491E+02   -0.20912E-03   -0.16474E-03    16   0.415E-01    0.464E-02
DAV:   3    -0.141061964446E+02   -0.47796E-04   -0.47771E-05    24   0.639E-02
  288 T=  1722. E= -.13660904E+02 F= -.14106196E+02 E0= -.14106196E+02  EK= 0.44529E+00 SP= 0.00E+00 SK= 0.00E+00
       N       E                     dE             d eps       ncg     rms          rms(c)
DAV:   1    -0.140068197742E+02    0.99329E-01   -0.60586E-02    24   0.276E+00    0.163E-01
DAV:   2    -0.140068578426E+02   -0.38068E-04   -0.45613E-03    24   0.687E-01    0.678E-02
DAV:   3    -0.140068794027E+02   -0.21560E-04   -0.57552E-05    24   0.724E-02
  289 T=  1354. E= -.13656794E+02 F= -.14006879E+02 E0= -.14006879E+02  EK= 0.35009E+00 SP= 0.00E+00 SK= 0.00E+00
       N       E                     dE             d eps       ncg     rms          rms(c)
DAV:   1    -0.139419057202E+02    0.64952E-01   -0.29843E-02    24   0.205E+00    0.790E-02
DAV:   2    -0.139421938425E+02   -0.28812E-03   -0.23785E-03    16   0.477E-01    0.414E-02
DAV:   3    -0.139423050164E+02   -0.11117E-03   -0.22296E-05    24   0.406E-02    0.227E-02
DAV:   4    -0.139424591632E+02   -0.15415E-03   -0.17661E-05    24   0.324E-02    0.334E-03
DAV:   5    -0.139425097910E+02   -0.50628E-04   -0.30970E-06    24   0.111E-02
  290 T=  1118. E= -.13653363E+02 F= -.13942510E+02 E0= -.13942510E+02  EK= 0.28915E+00 SP= 0.00E+00 SK= 0.00E+00
       N       E                     dE             d eps       ncg     rms          rms(c)
DAV:   1    -0.139634480455E+02   -0.20989E-01   -0.20375E-02    24   0.128E+00    0.315E-02
DAV:   2    -0.139635501615E+02   -0.10212E-03   -0.55777E-04    16   0.220E-01    0.163E-02
DAV:   3    -0.139635904687E+02   -0.40307E-04   -0.11075E-05    32   0.339E-02
  291 T=  1196. E= -.13654470E+02 F= -.13963590E+02 E0= -.13963590E+02  EK= 0.30912E+00 SP= 0.00E+00 SK= 0.00E+00
       N       E                     dE             d eps       ncg     rms          rms(c)
DAV:   1    -0.140538325589E+02   -0.90282E-01   -0.42402E-02    24   0.136E+00    0.309E-02
DAV:   2    -0.140539547845E+02   -0.12223E-03   -0.64513E-04    24   0.268E-01    0.242E-02
DAV:   3    -0.140539834167E+02   -0.28632E-04   -0.68045E-06    24   0.197E-02
  292 T=  1529. E= -.13658809E+02 F= -.14053983E+02 E0= -.14053983E+02  EK= 0.39517E+00 SP= 0.00E+00 SK= 0.00E+00
       N       E                     dE             d eps       ncg     rms          rms(c)
DAV:   1    -0.141481530446E+02   -0.94198E-01   -0.77329E-02    16   0.186E+00    0.510E-02
DAV:   2    -0.141482474556E+02   -0.94411E-04   -0.12273E-03    24   0.413E-01    0.203E-02
DAV:   3    -0.141482585346E+02   -0.11079E-04   -0.33479E-06    24   0.163E-02
  293 T=  1880. E= -.13662290E+02 F= -.14148259E+02 E0= -.14148259E+02  EK= 0.48597E+00 SP= 0.00E+00 SK= 0.00E+00
       N       E                     dE             d eps       ncg     rms          rms(c)
DAV:   1    -0.141920170598E+02   -0.43770E-01   -0.10314E-01    24   0.217E+00    0.508E-02
DAV:   2    -0.141921402028E+02   -0.12314E-03   -0.12508E-03    16   0.403E-01    0.264E-02
DAV:   3    -0.141921572674E+02   -0.17065E-04   -0.10176E-05    24   0.317E-02
  294 T=  2048. E= -.13662753E+02 F= -.14192157E+02 E0= -.14192157E+02  EK= 0.52940E+00 SP= 0.00E+00 SK= 0.00E+00
       N       E                     dE             d eps       ncg     rms          rms(c)
DAV:   1    -0.141735795037E+02    0.18561E-01   -0.10944E-01    24   0.232E+00    0.634E-02
DAV:   2    -0.141737012857E+02   -0.12178E-03   -0.16732E-03    16   0.440E-01    0.266E-02
DAV:   3    -0.141737124923E+02   -0.11207E-04   -0.13576E-05    24   0.371E-02
  295 T=  1982. E= -.13661414E+02 F= -.14173712E+02 E0= -.14173712E+02  EK= 0.51230E+00 SP= 0.00E+00 SK= 0.00E+00
       N       E                     dE             d eps       ncg     rms          rms(c)
DAV:   1    -0.141109679890E+02    0.62733E-01   -0.90705E-02    32   0.173E+00    0.338E-02
DAV:   2    -0.141110242016E+02   -0.56213E-04   -0.81959E-04    16   0.277E-01
  296 T=  1747. E= -.13659503E+02 F= -.14111024E+02 E0= -.14111024E+02  EK= 0.45152E+00 SP= 0.00E+00 SK= 0.00E+00
       N       E                     dE             d eps       ncg     rms          rms(c)
DAV:   1    -0.140322769528E+02    0.78691E-01   -0.90300E-02    24   0.198E+00    0.479E-02
DAV:   2    -0.140324379891E+02   -0.16104E-03   -0.14609E-03    24   0.364E-01    0.383E-02
DAV:   3    -0.140324649656E+02   -0.26977E-04   -0.86188E-05    24   0.678E-02
  297 T=  1449. E= -.13657822E+02 F= -.14032465E+02 E0= -.14032465E+02  EK= 0.37464E+00 SP= 0.00E+00 SK= 0.00E+00
       N       E                     dE             d eps       ncg     rms          rms(c)
DAV:   1    -0.139638497207E+02    0.68588E-01   -0.54852E-02    24   0.145E+00    0.438E-02
DAV:   2    -0.139639492423E+02   -0.99522E-04   -0.84209E-04    16   0.278E-01
  298 T=  1189. E= -.13656605E+02 F= -.13963949E+02 E0= -.13963949E+02  EK= 0.30734E+00 SP= 0.00E+00 SK= 0.00E+00
       N       E                     dE             d eps       ncg     rms          rms(c)
DAV:   1    -0.139236394616E+02    0.40210E-01   -0.30317E-02    32   0.112E+00    0.491E-02
DAV:   2    -0.139236988130E+02   -0.59351E-04   -0.30413E-04    16   0.150E-01
  299 T=  1036. E= -.13655853E+02 F= -.13923699E+02 E0= -.13923699E+02  EK= 0.26785E+00 SP= 0.00E+00 SK= 0.00E+00
       N       E                     dE             d eps       ncg     rms          rms(c)
DAV:   1    -0.139215695086E+02    0.20700E-02   -0.18580E-02    32   0.105E+00    0.199E-02
DAV:   2    -0.139216239129E+02   -0.54404E-04   -0.27028E-04    16   0.163E-01
  300 T=  1028. E= -.13655739E+02 F= -.13921624E+02 E0= -.13921624E+02  EK= 0.26589E+00 SP= 0.00E+00 SK= 0.00E+00
       N       E                     dE             d eps       ncg     rms          rms(c)
DAV:   1    -0.139588286093E+02   -0.37259E-01   -0.16769E-02    24   0.114E+00    0.201E-02
DAV:   2    -0.139589195857E+02   -0.90976E-04   -0.39720E-04    24   0.203E-01
  301 T=  1171. E= -.13656183E+02 F= -.13958920E+02 E0= -.13958920E+02  EK= 0.30274E+00 SP= 0.00E+00 SK= 0.00E+00
       N       E                     dE             d eps       ncg     rms          rms(c)
DAV:   1    -0.140280182147E+02   -0.69190E-01   -0.25270E-02    16   0.143E+00    0.187E-02
DAV:   2    -0.140281195454E+02   -0.10133E-03   -0.60655E-04    32   0.268E-01    0.195E-02
DAV:   3    -0.140281312257E+02   -0.11680E-04   -0.13462E-06    16   0.957E-03
  302 T=  1435. E= -.13657260E+02 F= -.14028131E+02 E0= -.14028131E+02  EK= 0.37087E+00 SP= 0.00E+00 SK= 0.00E+00
       N       E                     dE             d eps       ncg     rms          rms(c)
DAV:   1    -0.141124439078E+02   -0.84324E-01   -0.42855E-02    32   0.179E+00    0.215E-02
DAV:   2    -0.141125626007E+02   -0.11869E-03   -0.51850E-04    16   0.236E-01    0.106E-02
DAV:   3    -0.141126038135E+02   -0.41213E-04   -0.74679E-06    32   0.216E-02
  303 T=  1755. E= -.13658894E+02 F= -.14112604E+02 E0= -.14112604E+02  EK= 0.45371E+00 SP= 0.00E+00 SK= 0.00E+00
       N       E                     dE             d eps       ncg     rms          rms(c)
DAV:   1    -0.141869160609E+02   -0.74353E-01   -0.62235E-02    24   0.215E+00    0.153E-02
DAV:   2    -0.141871222089E+02   -0.20615E-03   -0.15359E-03    24   0.412E-01    0.254E-02
DAV:   3    -0.141871268657E+02   -0.46568E-05   -0.17959E-06    24   0.129E-02
  304 T=  2036. E= -.13660807E+02 F= -.14187127E+02 E0= -.14187127E+02  EK= 0.52632E+00 SP= 0.00E+00 SK= 0.00E+00
       N       E                     dE             d eps       ncg     rms          rms(c)
DAV:   1    -0.142213904195E+02   -0.34268E-01   -0.76309E-02    32   0.241E+00    0.337E-02
DAV:   2    -0.142215279218E+02   -0.13750E-03   -0.11323E-03    16   0.362E-01    0.334E-02
DAV:   3    -0.142215432209E+02   -0.15299E-04   -0.11114E-05    24   0.334E-02
  305 T=  2163. E= -.13662490E+02 F= -.14221543E+02 E0= -.14221543E+02  EK= 0.55905E+00 SP= 0.00E+00 SK= 0.00E+00
       N       E                     dE             d eps       ncg     rms          rms(c)
DAV:   1    -0.141917322435E+02    0.29796E-01   -0.80404E-02    16   0.270E+00    0.347E-02
DAV:   2    -0.141921400123E+02   -0.40777E-03   -0.40094E-03    24   0.604E-01    0.486E-02
DAV:   3    -0.141921290231E+02    0.10989E-04   -0.88892E-06    16   0.266E-02
  306 T=  2049. E= -.13662346E+02 F= -.14192129E+02 E0= -.14192129E+02  EK= 0.52978E+00 SP= 0.00E+00 SK= 0.00E+00
       N       E                     dE             d eps       ncg     rms          rms(c)
DAV:   1    -0.141027927704E+02    0.89347E-01   -0.10723E-01    16   0.370E+00    0.856E-02
DAV:   2    -0.141034973783E+02   -0.70461E-03   -0.70364E-03    32   0.773E-01    0.827E-02
DAV:   3    -0.141034748870E+02    0.22491E-04   -0.46149E-05    24   0.548E-02
  307 T=  1719. E= -.13658960E+02 F= -.14103475E+02 E0= -.14103475E+02  EK= 0.44452E+00 SP= 0.00E+00 SK= 0.00E+00
       N       E                     dE             d eps       ncg     rms          rms(c)
DAV:   1    -0.140053530073E+02    0.98144E-01   -0.65110E-02    16   0.303E+00    0.154E-01
DAV:   2    -0.140054286365E+02   -0.75629E-04   -0.38061E-03    32   0.601E-01    0.696E-02
DAV:   3    -0.140054516687E+02   -0.23032E-04   -0.59417E-05    32   0.729E-02
  308 T=  1359. E= -.13654028E+02 F= -.14005452E+02 E0= -.14005452E+02  EK= 0.35142E+00 SP= 0.00E+00 SK= 0.00E+00
       N       E                     dE             d eps       ncg     rms          rms(c)
DAV:   1    -0.139693150070E+02    0.36114E-01   -0.22360E-02    24   0.193E+00    0.524E-02
DAV:   2    -0.139694683171E+02   -0.15331E-03   -0.10229E-03    16   0.334E-01    0.345E-02
DAV:   3    -0.139695311662E+02   -0.62849E-04   -0.27095E-05    32   0.434E-02
  309 T=  1227. E= -.13652298E+02 F= -.13969531E+02 E0= -.13969531E+02  EK= 0.31723E+00 SP= 0.00E+00 SK= 0.00E+00
       N       E                     dE             d eps       ncg     rms          rms(c)
DAV:   1    -0.140207963674E+02   -0.51328E-01   -0.28176E-02    16   0.139E+00    0.369E-02
DAV:   2    -0.140208751398E+02   -0.78772E-04   -0.76525E-04    16   0.259E-01
  310 T=  1413. E= -.13655647E+02 F= -.14020875E+02 E0= -.14020875E+02  EK= 0.36523E+00 SP= 0.00E+00 SK= 0.00E+00
       N       E                     dE             d eps       ncg     rms          rms(c)
DAV:   1    -0.141108569809E+02   -0.90061E-01   -0.56396E-02    32   0.163E+00    0.533E-02
DAV:   2    -0.141109502902E+02   -0.93309E-04   -0.70366E-04    16   0.294E-01
  311 T=  1744. E= -.13660082E+02 F= -.14110950E+02 E0= -.14110950E+02  EK= 0.45087E+00 SP= 0.00E+00 SK= 0.00E+00
       N       E                     dE             d eps       ncg     rms          rms(c)
DAV:   1    -0.141716667966E+02   -0.60810E-01   -0.88948E-02    16   0.195E+00    0.561E-02
DAV:   2    -0.141718044121E+02   -0.13762E-03   -0.13772E-03    32   0.431E-01    0.320E-02
DAV:   3    -0.141718281513E+02   -0.23739E-04   -0.11809E-05    24   0.359E-02
  312 T=  1972. E= -.13661934E+02 F= -.14171828E+02 E0= -.14171828E+02  EK= 0.50989E+00 SP= 0.00E+00 SK= 0.00E+00
       N       E                     dE             d eps       ncg     rms          rms(c)
DAV:   1    -0.141722412178E+02   -0.43681E-03   -0.10514E-01    32   0.208E+00    0.437E-02
DAV:   2    -0.141723376810E+02   -0.96463E-04   -0.11288E-03    16   0.339E-01    0.178E-02
DAV:   3    -0.141723493125E+02   -0.11631E-04   -0.11476E-05    24   0.315E-02
  313 T=  1978. E= -.13661057E+02 F= -.14172349E+02 E0= -.14172349E+02  EK= 0.51129E+00 SP= 0.00E+00 SK= 0.00E+00
       N       E                     dE             d eps       ncg     rms          rms(c)
DAV:   1    -0.141217576080E+02    0.50580E-01   -0.97612E-02    24   0.184E+00    0.514E-02
DAV:   2    -0.141218699394E+02   -0.11233E-03   -0.14065E-03    32   0.389E-01    0.230E-02
DAV:   3    -0.141218772284E+02   -0.72890E-05   -0.68305E-06    24   0.285E-02
  314 T=  1790. E= -.13659135E+02 F= -.14121877E+02 E0= -.14121877E+02  EK= 0.46274E+00 SP= 0.00E+00 SK= 0.00E+00
       N       E                     dE             d eps       ncg     rms          rms(c)
DAV:   1    -0.140479884228E+02    0.73882E-01   -0.97882E-02    32   0.188E+00    0.404E-02
DAV:   2    -0.140480784068E+02   -0.89984E-04   -0.96351E-04    32   0.289E-01
  315 T=  1512. E= -.13657254E+02 F= -.14048078E+02 E0= -.14048078E+02  EK= 0.39082E+00 SP= 0.00E+00 SK= 0.00E+00
       N       E                     dE             d eps       ncg     rms          rms(c)
DAV:   1    -0.139790244444E+02    0.68964E-01   -0.68119E-02    32   0.152E+00    0.605E-02
DAV:   2    -0.139791001441E+02   -0.75700E-04   -0.48394E-04    16   0.193E-01
  316 T=  1251. E= -.13655734E+02 F= -.13979100E+02 E0= -.13979100E+02  EK= 0.32337E+00 SP= 0.00E+00 SK= 0.00E+00
       N       E                     dE             d eps       ncg     rms          rms(c)
DAV:   1    -0.139360111770E+02    0.43013E-01   -0.41019E-02    32   0.125E+00    0.185E-02
DAV:   2    -0.139360551627E+02   -0.43986E-04   -0.20481E-04    16   0.141E-01
  317 T=  1087. E= -.13654924E+02 F= -.13936055E+02 E0= -.13936055E+02  EK= 0.28113E+00 SP= 0.00E+00 SK= 0.00E+00
       N       E                     dE             d eps       ncg     rms          rms(c)
DAV:   1    -0.139307006390E+02    0.53105E-02   -0.22135E-02    32   0.118E+00    0.192E-02
DAV:   2    -0.139307398415E+02   -0.39202E-04   -0.34897E-04    16   0.200E-01
  318 T=  1067. E= -.13654792E+02 F= -.13930740E+02 E0= -.13930740E+02  EK= 0.27595E+00 SP= 0.00E+00 SK= 0.00E+00
       N       E                     dE             d eps       ncg     rms          rms(c)
DAV:   1    -0.139655312476E+02   -0.34831E-01   -0.13826E-02    16   0.131E+00    0.102E-02
DAV:   2    -0.139655874735E+02   -0.56226E-04   -0.42944E-04    32   0.238E-01
  319 T=  1201. E= -.13655211E+02 F= -.13965587E+02 E0= -.13965587E+02  EK= 0.31038E+00 SP= 0.00E+00 SK= 0.00E+00
       N       E                     dE             d eps       ncg     rms          rms(c)
DAV:   1    -0.140335640836E+02   -0.68033E-01   -0.18369E-02    24   0.158E+00    0.210E-02
DAV:   2    -0.140336257969E+02   -0.61713E-04   -0.29629E-04    32   0.195E-01
  320 T=  1460. E= -.13656197E+02 F= -.14033626E+02 E0= -.14033626E+02  EK= 0.37743E+00 SP= 0.00E+00 SK= 0.00E+00
       N       E                     dE             d eps       ncg     rms          rms(c)
DAV:   1    -0.141180009700E+02   -0.84437E-01   -0.31592E-02    16   0.194E+00    0.228E-02
DAV:   2    -0.141180773682E+02   -0.76398E-04   -0.65152E-04    32   0.292E-01
  321 T=  1780. E= -.13657913E+02 F= -.14118077E+02 E0= -.14118077E+02  EK= 0.46016E+00 SP= 0.00E+00 SK= 0.00E+00
       N       E                     dE             d eps       ncg     rms          rms(c)
DAV:   1    -0.141922972653E+02   -0.74296E-01   -0.50111E-02    16   0.229E+00    0.342E-02
DAV:   2    -0.141923916916E+02   -0.94426E-04   -0.10041E-03    32   0.377E-01    0.278E-02
DAV:   3    -0.141923984947E+02   -0.68031E-05   -0.26575E-05    16   0.429E-02
  322 T=  2059. E= -.13660083E+02 F= -.14192398E+02 E0= -.14192398E+02  EK= 0.53232E+00 SP= 0.00E+00 SK= 0.00E+00
       N       E                     dE             d eps       ncg     rms          rms(c)
DAV:   1    -0.142250609118E+02   -0.32669E-01   -0.62577E-02    32   0.257E+00    0.201E-02
DAV:   2    -0.142251597124E+02   -0.98801E-04   -0.84019E-04    16   0.336E-01
  323 T=  2179. E= -.13661772E+02 F= -.14225160E+02 E0= -.14225160E+02  EK= 0.56339E+00 SP= 0.00E+00 SK= 0.00E+00
       N       E                     dE             d eps       ncg     rms          rms(c)
DAV:   1    -0.141930124044E+02    0.32049E-01   -0.61241E-02    16   0.275E+00    0.357E-02
DAV:   2    -0.141933894908E+02   -0.37709E-03   -0.35950E-03    32   0.623E-01    0.494E-02
DAV:   3    -0.141933831879E+02    0.63028E-05   -0.23459E-05    16   0.363E-02
  324 T=  2058. E= -.13661388E+02 F= -.14193383E+02 E0= -.14193383E+02  EK= 0.53200E+00 SP= 0.00E+00 SK= 0.00E+00
       N       E                     dE             d eps       ncg     rms          rms(c)
DAV:   1    -0.141044921021E+02    0.88897E-01   -0.40240E-02    16   0.239E+00    0.518E-02
DAV:   2    -0.141046261455E+02   -0.13404E-03   -0.18202E-03    32   0.469E-01    0.290E-02
DAV:   3    -0.141046273579E+02   -0.12123E-05   -0.10122E-05    16   0.303E-02
  325 T=  1727. E= -.13658111E+02 F= -.14104627E+02 E0= -.14104627E+02  EK= 0.44652E+00 SP= 0.00E+00 SK= 0.00E+00
       N       E                     dE             d eps       ncg     rms          rms(c)
DAV:   1    -0.140110250891E+02    0.93601E-01   -0.32016E-02    24   0.255E+00    0.127E-01
DAV:   2    -0.140111396825E+02   -0.11459E-03   -0.29980E-03    16   0.574E-01    0.530E-02
DAV:   3    -0.140112040688E+02   -0.64386E-04   -0.42385E-05    32   0.650E-02
  326 T=  1384. E= -.13653448E+02 F= -.14011204E+02 E0= -.14011204E+02  EK= 0.35776E+00 SP= 0.00E+00 SK= 0.00E+00
       N       E                     dE             d eps       ncg     rms          rms(c)
DAV:   1    -0.139815442018E+02    0.29595E-01   -0.11571E-02    16   0.165E+00    0.525E-02
DAV:   2    -0.139816867726E+02   -0.14257E-03   -0.12968E-03    32   0.385E-01    0.158E-02
DAV:   3    -0.139817519606E+02   -0.65188E-04   -0.48648E-06    32   0.183E-02
  327 T=  1275. E= -.13652022E+02 F= -.13981752E+02 E0= -.13981752E+02  EK= 0.32973E+00 SP= 0.00E+00 SK= 0.00E+00
       N       E                     dE             d eps       ncg     rms          rms(c)
DAV:   1    -0.140357519991E+02   -0.54065E-01   -0.21287E-02    32   0.108E+00    0.159E-02
DAV:   2    -0.140358076005E+02   -0.55601E-04   -0.31400E-04    16   0.186E-01
  328 T=  1471. E= -.13655499E+02 F= -.14035808E+02 E0= -.14035808E+02  EK= 0.38031E+00 SP= 0.00E+00 SK= 0.00E+00
       N       E                     dE             d eps       ncg     rms          rms(c)
DAV:   1    -0.141238776314E+02   -0.88126E-01   -0.51688E-02    32   0.140E+00    0.354E-02
DAV:   2    -0.141239869094E+02   -0.10928E-03   -0.51058E-04    16   0.250E-01    0.207E-02
DAV:   3    -0.141240549665E+02   -0.68057E-04   -0.58443E-06    32   0.232E-02
  329 T=  1797. E= -.13659525E+02 F= -.14124055E+02 E0= -.14124055E+02  EK= 0.46453E+00 SP= 0.00E+00 SK= 0.00E+00
       N       E                     dE             d eps       ncg     rms          rms(c)
DAV:   1    -0.141832024341E+02   -0.59216E-01   -0.84288E-02    32   0.176E+00    0.424E-02
DAV:   2    -0.141832900823E+02   -0.87648E-04   -0.75080E-04    16   0.300E-01
  330 T=  2020. E= -.13661191E+02 F= -.14183290E+02 E0= -.14183290E+02  EK= 0.52210E+00 SP= 0.00E+00 SK= 0.00E+00
       N       E                     dE             d eps       ncg     rms          rms(c)
DAV:   1    -0.141842095859E+02   -0.10072E-02   -0.10086E-01    32   0.188E+00    0.572E-02
DAV:   2    -0.141842984889E+02   -0.88903E-04   -0.81377E-04    16   0.313E-01
  331 T=  2026. E= -.13660563E+02 F= -.14184298E+02 E0= -.14184298E+02  EK= 0.52374E+00 SP= 0.00E+00 SK= 0.00E+00
       N       E                     dE             d eps       ncg     rms          rms(c)
DAV:   1    -0.141343837225E+02    0.49826E-01   -0.95525E-02    32   0.180E+00    0.491E-02
DAV:   2    -0.141344625343E+02   -0.78812E-04   -0.83050E-04    16   0.305E-01
  332 T=  1839. E= -.13658990E+02 F= -.14134463E+02 E0= -.14134463E+02  EK= 0.47547E+00 SP= 0.00E+00 SK= 0.00E+00
       N       E                     dE             d eps       ncg     rms          rms(c)
DAV:   1    -0.140578203033E+02    0.76563E-01   -0.80529E-02    16   0.144E+00    0.344E-02
DAV:   2    -0.140580290441E+02   -0.20874E-03   -0.20502E-03    32   0.424E-01    0.280E-02
DAV:   3    -0.140580290295E+02    0.14627E-07   -0.19233E-05    16   0.312E-02
  333 T=  1550. E= -.13657308E+02 F= -.14058029E+02 E0= -.14058029E+02  EK= 0.40072E+00 SP= 0.00E+00 SK= 0.00E+00
       N       E                     dE             d eps       ncg     rms          rms(c)
DAV:   1    -0.139806594119E+02    0.77370E-01   -0.61139E-02    16   0.134E+00    0.522E-02
DAV:   2    -0.139808087737E+02   -0.14936E-03   -0.11875E-03    32   0.296E-01    0.445E-02
DAV:   3    -0.139808294039E+02   -0.20630E-04   -0.20530E-05    24   0.368E-02
  334 T=  1257. E= -.13655879E+02 F= -.13980829E+02 E0= -.13980829E+02  EK= 0.32495E+00 SP= 0.00E+00 SK= 0.00E+00
       N       E                     dE             d eps       ncg     rms          rms(c)
DAV:   1    -0.139236274165E+02    0.57181E-01   -0.38914E-02    32   0.111E+00    0.221E-02
DAV:   2    -0.139237013141E+02   -0.73898E-04   -0.32346E-04    24   0.162E-01
  335 T=  1040. E= -.13654949E+02 F= -.13923701E+02 E0= -.13923701E+02  EK= 0.26875E+00 SP= 0.00E+00 SK= 0.00E+00
       N       E                     dE             d eps       ncg     rms          rms(c)
DAV:   1    -0.139000526242E+02    0.23575E-01   -0.19638E-02    16   0.947E-01    0.286E-02
DAV:   2    -0.139001425721E+02   -0.89948E-04   -0.39267E-04    32   0.196E-01
  336 T=   950. E= -.13654519E+02 F= -.13900143E+02 E0= -.13900143E+02  EK= 0.24562E+00 SP= 0.00E+00 SK= 0.00E+00
       N       E                     dE             d eps       ncg     rms          rms(c)
DAV:   1    -0.139158831666E+02   -0.15831E-01   -0.89621E-03    16   0.103E+00    0.234E-02
DAV:   2    -0.139159612000E+02   -0.78033E-04   -0.35760E-04    32   0.216E-01
  337 T=  1010. E= -.13654732E+02 F= -.13915961E+02 E0= -.13915961E+02  EK= 0.26123E+00 SP= 0.00E+00 SK= 0.00E+00
       N       E                     dE             d eps       ncg     rms          rms(c)
DAV:   1    -0.139684040043E+02   -0.52521E-01   -0.98140E-03    16   0.125E+00    0.154E-02
DAV:   2    -0.139684776947E+02   -0.73690E-04   -0.38041E-04    32   0.215E-01
  338 T=  1211. E= -.13655437E+02 F= -.13968478E+02 E0= -.13968478E+02  EK= 0.31304E+00 SP= 0.00E+00 SK= 0.00E+00
       N       E                     dE             d eps       ncg     rms          rms(c)
DAV:   1    -0.140463272275E+02   -0.77923E-01   -0.20059E-02    16   0.158E+00    0.186E-02
DAV:   2    -0.140464730062E+02   -0.14578E-03   -0.56156E-04    32   0.262E-01    0.198E-02
DAV:   3    -0.140465060622E+02   -0.33056E-04   -0.28121E-06    16   0.123E-02
  339 T=  1508. E= -.13656607E+02 F= -.14046506E+02 E0= -.14046506E+02  EK= 0.38990E+00 SP= 0.00E+00 SK= 0.00E+00
       N       E                     dE             d eps       ncg     rms          rms(c)
DAV:   1    -0.141302290368E+02   -0.83756E-01   -0.35368E-02    16   0.191E+00    0.153E-02
DAV:   2    -0.141303617286E+02   -0.13269E-03   -0.93456E-04    32   0.326E-01    0.166E-02
DAV:   3    -0.141303735333E+02   -0.11805E-04   -0.57914E-06    16   0.175E-02
  340 T=  1825. E= -.13658453E+02 F= -.14130374E+02 E0= -.14130374E+02  EK= 0.47192E+00 SP= 0.00E+00 SK= 0.00E+00
       N       E                     dE             d eps       ncg     rms          rms(c)
DAV:   1    -0.141925739222E+02   -0.62212E-01   -0.53662E-02    32   0.219E+00    0.231E-02
DAV:   2    -0.141926951942E+02   -0.12127E-03   -0.80233E-04    16   0.320E-01    0.210E-02
DAV:   3    -0.141927349437E+02   -0.39750E-04   -0.15749E-05    32   0.332E-02
  341 T=  2060. E= -.13660243E+02 F= -.14192735E+02 E0= -.14192735E+02  EK= 0.53249E+00 SP= 0.00E+00 SK= 0.00E+00
       N       E                     dE             d eps       ncg     rms          rms(c)
DAV:   1    -0.142068971059E+02   -0.14202E-01   -0.62767E-02    16   0.238E+00    0.298E-02
DAV:   2    -0.142071804895E+02   -0.28338E-03   -0.24230E-03    32   0.491E-01    0.394E-02
DAV:   3    -0.142071838151E+02   -0.33256E-05   -0.88979E-06    16   0.232E-02
  342 T=  2113. E= -.13660984E+02 F= -.14207184E+02 E0= -.14207184E+02  EK= 0.54620E+00 SP= 0.00E+00 SK= 0.00E+00
       N       E                     dE             d eps       ncg     rms          rms(c)
DAV:   1    -0.141630689083E+02    0.44112E-01   -0.59518E-02    16   0.254E+00    0.432E-02
DAV:   2    -0.141634773981E+02   -0.40849E-03   -0.38582E-03    32   0.575E-01    0.531E-02
DAV:   3    -0.141634749541E+02    0.24439E-05   -0.14717E-05    16   0.297E-02
  343 T=  1950. E= -.13659409E+02 F= -.14163475E+02 E0= -.14163475E+02  EK= 0.50407E+00 SP= 0.00E+00 SK= 0.00E+00
       N       E                     dE             d eps       ncg     rms          rms(c)
DAV:   1    -0.140855097322E+02    0.77968E-01   -0.59938E-02    16   0.280E+00    0.123E-01
DAV:   2    -0.140856461106E+02   -0.13638E-03   -0.37682E-03    24   0.604E-01    0.467E-02
DAV:   3    -0.140856888810E+02   -0.42770E-04   -0.29433E-05    32   0.463E-02
  344 T=  1664. E= -.13655499E+02 F= -.14085689E+02 E0= -.14085689E+02  EK= 0.43019E+00 SP= 0.00E+00 SK= 0.00E+00
       N       E                     dE             d eps       ncg     rms          rms(c)
DAV:   1    -0.140302728895E+02    0.55373E-01   -0.23757E-02    16   0.196E+00    0.842E-02
DAV:   2    -0.140304600392E+02   -0.18715E-03   -0.15310E-03    32   0.395E-01    0.433E-02
DAV:   3    -0.140305360465E+02   -0.76007E-04   -0.30133E-05    16   0.405E-02
  345 T=  1463. E= -.13652315E+02 F= -.14030536E+02 E0= -.14030536E+02  EK= 0.37822E+00 SP= 0.00E+00 SK= 0.00E+00
       N       E                     dE             d eps       ncg     rms          rms(c)
DAV:   1    -0.140424736933E+02   -0.12014E-01   -0.16236E-02    32   0.135E+00    0.386E-02
DAV:   2    -0.140425180188E+02   -0.44326E-04   -0.41419E-04    16   0.203E-01
  346 T=  1505. E= -.13653329E+02 F= -.14042518E+02 E0= -.14042518E+02  EK= 0.38919E+00 SP= 0.00E+00 SK= 0.00E+00
       N       E                     dE             d eps       ncg     rms          rms(c)
DAV:   1    -0.141077398419E+02   -0.65266E-01   -0.32551E-02    32   0.146E+00    0.508E-02
DAV:   2    -0.141078429315E+02   -0.10309E-03   -0.48653E-04    16   0.238E-01    0.313E-02
DAV:   3    -0.141079511401E+02   -0.10821E-03   -0.18240E-05    32   0.380E-02    0.628E-03
DAV:   4    -0.141079913995E+02   -0.40259E-04   -0.34275E-06    16   0.126E-02
  347 T=  1744. E= -.13657136E+02 F= -.14107991E+02 E0= -.14107991E+02  EK= 0.45086E+00 SP= 0.00E+00 SK= 0.00E+00
       N       E                     dE             d eps       ncg     rms          rms(c)
DAV:   1    -0.141716334947E+02   -0.63682E-01   -0.61537E-02    16   0.183E+00    0.384E-02
DAV:   2    -0.141717861577E+02   -0.15266E-03   -0.13913E-03    32   0.429E-01    0.179E-02
DAV:   3    -0.141718023729E+02   -0.16215E-04   -0.35199E-06    16   0.214E-02
  348 T=  1980. E= -.13659962E+02 F= -.14171802E+02 E0= -.14171802E+02  EK= 0.51184E+00 SP= 0.00E+00 SK= 0.00E+00
       N       E                     dE             d eps       ncg     rms          rms(c)
DAV:   1    -0.141900283602E+02   -0.18242E-01   -0.84399E-02    32   0.202E+00    0.433E-02
DAV:   2    -0.141901457535E+02   -0.11739E-03   -0.97196E-04    24   0.325E-01    0.241E-02
DAV:   3    -0.141901795089E+02   -0.33755E-04   -0.10732E-05    24   0.311E-02
  349 T=  2050. E= -.13660233E+02 F= -.14190180E+02 E0= -.14190180E+02  EK= 0.52995E+00 SP= 0.00E+00 SK= 0.00E+00
       N       E                     dE             d eps       ncg     rms          rms(c)
DAV:   1    -0.141550864305E+02    0.35059E-01   -0.88654E-02    24   0.192E+00    0.444E-02
DAV:   2    -0.141552124363E+02   -0.12601E-03   -0.13288E-03    16   0.392E-01    0.227E-02
DAV:   3    -0.141552232873E+02   -0.10851E-04   -0.11231E-05    32   0.340E-02
  350 T=  1920. E= -.13658934E+02 F= -.14155223E+02 E0= -.14155223E+02  EK= 0.49629E+00 SP= 0.00E+00 SK= 0.00E+00
       N       E                     dE             d eps       ncg     rms          rms(c)
DAV:   1    -0.140842632284E+02    0.70949E-01   -0.79640E-02    24   0.158E+00    0.325E-02
DAV:   2    -0.140843883776E+02   -0.12515E-03   -0.13222E-03    16   0.357E-01    0.182E-02
DAV:   3    -0.140843988363E+02   -0.10459E-04   -0.74755E-06    24   0.259E-02
  351 T=  1653. E= -.13657157E+02 F= -.14084399E+02 E0= -.14084399E+02  EK= 0.42724E+00 SP= 0.00E+00 SK= 0.00E+00
       N       E                     dE             d eps       ncg     rms          rms(c)
DAV:   1    -0.140036677774E+02    0.80721E-01   -0.67705E-02    24   0.153E+00    0.289E-02
DAV:   2    -0.140037846848E+02   -0.11691E-03   -0.10743E-03    24   0.299E-01    0.219E-02
DAV:   3    -0.140037936821E+02   -0.89973E-05   -0.47081E-06    32   0.192E-02
  352 T=  1347. E= -.13655559E+02 F= -.14003794E+02 E0= -.14003794E+02  EK= 0.34823E+00 SP= 0.00E+00 SK= 0.00E+00
       N       E                     dE             d eps       ncg     rms          rms(c)
DAV:   1    -0.139371604473E+02    0.66624E-01   -0.44683E-02    24   0.124E+00    0.202E-02
DAV:   2    -0.139372180630E+02   -0.57616E-04   -0.50294E-04    16   0.197E-01
  353 T=  1094. E= -.13654441E+02 F= -.13937218E+02 E0= -.13937218E+02  EK= 0.28278E+00 SP= 0.00E+00 SK= 0.00E+00
       N       E                     dE             d eps       ncg     rms          rms(c)
DAV:   1    -0.139015819335E+02    0.35579E-01   -0.24125E-02    32   0.106E+00    0.472E-02
DAV:   2    -0.139016169216E+02   -0.34988E-04   -0.20348E-04    16   0.149E-01
  354 T=   959. E= -.13653791E+02 F= -.13901617E+02 E0= -.13901617E+02  EK= 0.24783E+00 SP= 0.00E+00 SK= 0.00E+00
       N       E                     dE             d eps       ncg     rms          rms(c)
DAV:   1    -0.139059108682E+02   -0.43289E-02   -0.13703E-02    16   0.110E+00    0.137E-02
DAV:   2    -0.139059704421E+02   -0.59574E-04   -0.41173E-04    24   0.221E-01
  355 T=   975. E= -.13653808E+02 F= -.13905970E+02 E0= -.13905970E+02  EK= 0.25216E+00 SP= 0.00E+00 SK= 0.00E+00
       N       E                     dE             d eps       ncg     rms          rms(c)
DAV:   1    -0.139499266379E+02   -0.44016E-01   -0.14501E-02    16   0.126E+00    0.170E-02
DAV:   2    -0.139499753757E+02   -0.48738E-04   -0.36268E-04    32   0.202E-01
  356 T=  1143. E= -.13654455E+02 F= -.13949975E+02 E0= -.13949975E+02  EK= 0.29552E+00 SP= 0.00E+00 SK= 0.00E+00
       N       E                     dE             d eps       ncg     rms          rms(c)
DAV:   1    -0.140233317770E+02   -0.73405E-01   -0.25641E-02    16   0.156E+00    0.168E-02
DAV:   2    -0.140233999038E+02   -0.68127E-04   -0.44238E-04    32   0.245E-01
  357 T=  1422. E= -.13655711E+02 F= -.14023400E+02 E0= -.14023400E+02  EK= 0.36769E+00 SP= 0.00E+00 SK= 0.00E+00
       N       E                     dE             d eps       ncg     rms          rms(c)
DAV:   1    -0.141054115556E+02   -0.82080E-01   -0.43668E-02    16   0.191E+00    0.219E-02
DAV:   2    -0.141055388758E+02   -0.12732E-03   -0.90490E-04    24   0.333E-01    0.253E-02
DAV:   3    -0.141055459808E+02   -0.71050E-05   -0.29307E-06    24   0.140E-02
  358 T=  1733. E= -.13657528E+02 F= -.14105546E+02 E0= -.14105546E+02  EK= 0.44802E+00 SP= 0.00E+00 SK= 0.00E+00
       N       E                     dE             d eps       ncg     rms          rms(c)
DAV:   1    -0.141669154602E+02   -0.61377E-01   -0.60332E-02    24   0.219E+00    0.245E-02
DAV:   2    -0.141670514138E+02   -0.13595E-03   -0.12758E-03    16   0.378E-01    0.159E-02
DAV:   3    -0.141670555490E+02   -0.41351E-05   -0.10359E-05    32   0.291E-02
  359 T=  1963. E= -.13659617E+02 F= -.14167056E+02 E0= -.14167056E+02  EK= 0.50744E+00 SP= 0.00E+00 SK= 0.00E+00
       N       E                     dE             d eps       ncg     rms          rms(c)
DAV:   1    -0.141774873387E+02   -0.10436E-01   -0.70175E-02    16   0.240E+00    0.159E-02
DAV:   2    -0.141777526935E+02   -0.26535E-03   -0.24118E-03    24   0.495E-01    0.360E-02
DAV:   3    -0.141777499499E+02    0.27436E-05   -0.44712E-06    24   0.185E-02
  360 T=  2001. E= -.13660476E+02 F= -.14177750E+02 E0= -.14177750E+02  EK= 0.51727E+00 SP= 0.00E+00 SK= 0.00E+00
       N       E                     dE             d eps       ncg     rms          rms(c)
DAV:   1    -0.141256213078E+02    0.52131E-01   -0.59751E-02    16   0.235E+00    0.285E-02
DAV:   2    -0.141258560381E+02   -0.23473E-03   -0.20382E-03    32   0.455E-01    0.418E-02
DAV:   3    -0.141258510904E+02    0.49477E-05   -0.21238E-06    16   0.137E-02
  361 T=  1807. E= -.13658668E+02 F= -.14125851E+02 E0= -.14125851E+02  EK= 0.46718E+00 SP= 0.00E+00 SK= 0.00E+00
       N       E                     dE             d eps       ncg     rms          rms(c)
DAV:   1    -0.140397537551E+02    0.86102E-01   -0.42414E-02    16   0.233E+00    0.146E-01
DAV:   2    -0.140396289127E+02    0.12484E-03   -0.32148E-03    16   0.586E-01    0.489E-02
DAV:   3    -0.140396497599E+02   -0.20847E-04   -0.38181E-05    24   0.642E-02
  362 T=  1490. E= -.13654419E+02 F= -.14039650E+02 E0= -.14039650E+02  EK= 0.38523E+00 SP= 0.00E+00 SK= 0.00E+00
       N       E                     dE             d eps       ncg     rms          rms(c)
DAV:   1    -0.139836626288E+02    0.55966E-01   -0.19916E-02    16   0.201E+00    0.525E-02
DAV:   2    -0.139838390907E+02   -0.17646E-03   -0.15471E-03    32   0.424E-01    0.212E-02
DAV:   3    -0.139838941866E+02   -0.55096E-04   -0.66489E-06    24   0.209E-02
  363 T=  1288. E= -.13650963E+02 F= -.13983894E+02 E0= -.13983894E+02  EK= 0.33293E+00 SP= 0.00E+00 SK= 0.00E+00
       N       E                     dE             d eps       ncg     rms          rms(c)
DAV:   1    -0.140076208749E+02   -0.23782E-01   -0.12917E-02    16   0.144E+00    0.282E-02
DAV:   2    -0.140077076198E+02   -0.86745E-04   -0.74205E-04    32   0.298E-01
  364 T=  1375. E= -.13652284E+02 F= -.14007708E+02 E0= -.14007708E+02  EK= 0.35542E+00 SP= 0.00E+00 SK= 0.00E+00
       N       E                     dE             d eps       ncg     rms          rms(c)
DAV:   1    -0.140928495889E+02   -0.85229E-01   -0.30789E-02    16   0.146E+00    0.316E-02
DAV:   2    -0.140929206548E+02   -0.71066E-04   -0.67251E-04    24   0.299E-01
  365 T=  1688. E= -.13656427E+02 F= -.14092921E+02 E0= -.14092921E+02  EK= 0.43649E+00 SP= 0.00E+00 SK= 0.00E+00
       N       E                     dE             d eps       ncg     rms          rms(c)
DAV:   1    -0.141774697246E+02   -0.84620E-01   -0.61280E-02    16   0.176E+00    0.510E-02
DAV:   2    -0.141775961992E+02   -0.12647E-03   -0.10192E-03    24   0.379E-01    0.321E-02
DAV:   3    -0.141776316396E+02   -0.35440E-04   -0.10476E-05    24   0.347E-02
  366 T=  2005. E= -.13659259E+02 F= -.14177632E+02 E0= -.14177632E+02  EK= 0.51837E+00 SP= 0.00E+00 SK= 0.00E+00
       N       E                     dE             d eps       ncg     rms          rms(c)
DAV:   1    -0.142145161591E+02   -0.36920E-01   -0.86185E-02    16   0.193E+00    0.389E-02
DAV:   2    -0.142146496929E+02   -0.13353E-03   -0.13176E-03    24   0.426E-01    0.200E-02
DAV:   3    -0.142146629142E+02   -0.13221E-04   -0.53254E-06    24   0.225E-02
  367 T=  2147. E= -.13659558E+02 F= -.14214663E+02 E0= -.14214663E+02  EK= 0.55511E+00 SP= 0.00E+00 SK= 0.00E+00
       N       E                     dE             d eps       ncg     rms          rms(c)
DAV:   1    -0.141941554234E+02    0.20494E-01   -0.95495E-02    16   0.193E+00    0.551E-02
DAV:   2    -0.141942765363E+02   -0.12111E-03   -0.13865E-03    24   0.429E-01    0.308E-02
DAV:   3    -0.141942836971E+02   -0.71608E-05   -0.99154E-06    16   0.355E-02
  368 T=  2073. E= -.13658285E+02 F= -.14194284E+02 E0= -.14194284E+02  EK= 0.53600E+00 SP= 0.00E+00 SK= 0.00E+00
       N       E                     dE             d eps       ncg     rms          rms(c)
DAV:   1    -0.141323876007E+02    0.61889E-01   -0.82884E-02    16   0.153E+00    0.362E-02
DAV:   2    -0.141325065013E+02   -0.11890E-03   -0.13374E-03    24   0.384E-01    0.174E-02
DAV:   3    -0.141325098356E+02   -0.33343E-05   -0.35389E-06    16   0.178E-02
  369 T=  1841. E= -.13656631E+02 F= -.14132510E+02 E0= -.14132510E+02  EK= 0.47588E+00 SP= 0.00E+00 SK= 0.00E+00
       N       E                     dE             d eps       ncg     rms          rms(c)
DAV:   1    -0.140537230371E+02    0.78783E-01   -0.73938E-02    24   0.150E+00    0.313E-02
DAV:   2    -0.140538210493E+02   -0.98012E-04   -0.98851E-04    16   0.295E-01
  370 T=  1543. E= -.13655021E+02 F= -.14053821E+02 E0= -.14053821E+02  EK= 0.39880E+00 SP= 0.00E+00 SK= 0.00E+00
       N       E                     dE             d eps       ncg     rms          rms(c)
DAV:   1    -0.139813364367E+02    0.72387E-01   -0.50779E-02    16   0.121E+00    0.679E-02
DAV:   2    -0.139814810889E+02   -0.14465E-03   -0.12087E-03    24   0.275E-01    0.573E-02
DAV:   3    -0.139814911982E+02   -0.10109E-04   -0.67374E-05    24   0.629E-02
  371 T=  1268. E= -.13653704E+02 F= -.13981491E+02 E0= -.13981491E+02  EK= 0.32779E+00 SP= 0.00E+00 SK= 0.00E+00
       N       E                     dE             d eps       ncg     rms          rms(c)
DAV:   1    -0.139337015833E+02    0.47780E-01   -0.27935E-02    16   0.947E-01    0.629E-02
DAV:   2    -0.139337325202E+02   -0.30937E-04   -0.92862E-04    32   0.265E-01
  372 T=  1086. E= -.13653025E+02 F= -.13933733E+02 E0= -.13933733E+02  EK= 0.28071E+00 SP= 0.00E+00 SK= 0.00E+00
       N       E                     dE             d eps       ncg     rms          rms(c)
DAV:   1    -0.139210038681E+02    0.12698E-01   -0.20732E-02    16   0.960E-01    0.414E-02
DAV:   2    -0.139210321309E+02   -0.28263E-04   -0.55566E-04    24   0.229E-01
  373 T=  1037. E= -.13652819E+02 F= -.13921032E+02 E0= -.13921032E+02  EK= 0.26821E+00 SP= 0.00E+00 SK= 0.00E+00
       N       E                     dE             d eps       ncg     rms          rms(c)
DAV:   1    -0.139457852977E+02   -0.24781E-01   -0.18140E-02    24   0.108E+00    0.356E-02
DAV:   2    -0.139458301343E+02   -0.44837E-04   -0.28782E-04    32   0.177E-01
  374 T=  1132. E= -.13653186E+02 F= -.13945830E+02 E0= -.13945830E+02  EK= 0.29264E+00 SP= 0.00E+00 SK= 0.00E+00
       N       E                     dE             d eps       ncg     rms          rms(c)
DAV:   1    -0.140013592254E+02   -0.55574E-01   -0.27129E-02    16   0.139E+00    0.306E-02
DAV:   2    -0.140014450786E+02   -0.85853E-04   -0.42167E-04    32   0.234E-01
  375 T=  1343. E= -.13654220E+02 F= -.14001445E+02 E0= -.14001445E+02  EK= 0.34722E+00 SP= 0.00E+00 SK= 0.00E+00
       N       E                     dE             d eps       ncg     rms          rms(c)
DAV:   1    -0.140716322770E+02   -0.70273E-01   -0.43391E-02    16   0.172E+00    0.159E-02
DAV:   2    -0.140717217838E+02   -0.89507E-04   -0.71106E-04    16   0.295E-01
  376 T=  1609. E= -.13655837E+02 F= -.14071722E+02 E0= -.14071722E+02  EK= 0.41588E+00 SP= 0.00E+00 SK= 0.00E+00
       N       E                     dE             d eps       ncg     rms          rms(c)
DAV:   1    -0.141320296738E+02   -0.60397E-01   -0.63521E-02    32   0.202E+00    0.516E-02
DAV:   2    -0.141321310263E+02   -0.10135E-03   -0.69385E-04    32   0.296E-01    0.335E-02
DAV:   3    -0.141321939693E+02   -0.62943E-04   -0.19250E-05    16   0.403E-02
  377 T=  1836. E= -.13657616E+02 F= -.14132194E+02 E0= -.14132194E+02  EK= 0.47458E+00 SP= 0.00E+00 SK= 0.00E+00
       N       E                     dE             d eps       ncg     rms          rms(c)
DAV:   1    -0.141563354185E+02   -0.24204E-01   -0.70932E-02    32   0.214E+00    0.228E-02
DAV:   2    -0.141564711255E+02   -0.13571E-03   -0.10362E-03    16   0.331E-01    0.166E-02
DAV:   3    -0.141564849631E+02   -0.13838E-04   -0.95417E-06    32   0.267E-02
  378 T=  1925. E= -.13658842E+02 F= -.14156485E+02 E0= -.14156485E+02  EK= 0.49764E+00 SP= 0.00E+00 SK= 0.00E+00
       N       E                     dE             d eps       ncg     rms          rms(c)
DAV:   1    -0.141290501629E+02    0.27421E-01   -0.65126E-02    16   0.213E+00    0.264E-02
DAV:   2    -0.141292647686E+02   -0.21461E-03   -0.20299E-03    32   0.440E-01    0.330E-02
DAV:   3    -0.141292626115E+02    0.21571E-05   -0.88263E-06    16   0.236E-02
  379 T=  1823. E= -.13658068E+02 F= -.14129263E+02 E0= -.14129263E+02  EK= 0.47119E+00 SP= 0.00E+00 SK= 0.00E+00
       N       E                     dE             d eps       ncg     rms          rms(c)
DAV:   1    -0.140642549407E+02    0.65010E-01   -0.45325E-02    24   0.189E+00    0.516E-02
DAV:   2    -0.140643416005E+02   -0.86660E-04   -0.11968E-03    32   0.360E-01    0.279E-02
DAV:   3    -0.140643550680E+02   -0.13467E-04   -0.11074E-05    24   0.303E-02
  380 T=  1583. E= -.13654994E+02 F= -.14064355E+02 E0= -.14064355E+02  EK= 0.40936E+00 SP= 0.00E+00 SK= 0.00E+00
       N       E                     dE             d eps       ncg     rms          rms(c)
DAV:   1    -0.140086874369E+02    0.55654E-01   -0.25583E-02    24   0.170E+00    0.896E-02
DAV:   2    -0.140086991923E+02   -0.11755E-04   -0.13240E-03    16   0.372E-01    0.329E-02
DAV:   3    -0.140087291067E+02   -0.29914E-04   -0.13104E-05    24   0.371E-02
  381 T=  1381. E= -.13651759E+02 F= -.14008729E+02 E0= -.14008729E+02  EK= 0.35697E+00 SP= 0.00E+00 SK= 0.00E+00
       N       E                     dE             d eps       ncg     rms          rms(c)
DAV:   1    -0.140101724984E+02   -0.14733E-02   -0.10795E-02    16   0.132E+00    0.429E-02
DAV:   2    -0.140102575797E+02   -0.85081E-04   -0.82149E-04    32   0.306E-01
  382 T=  1388. E= -.13651502E+02 F= -.14010258E+02 E0= -.14010258E+02  EK= 0.35876E+00 SP= 0.00E+00 SK= 0.00E+00
       N       E                     dE             d eps       ncg     rms          rms(c)
DAV:   1    -0.140720114916E+02   -0.61839E-01   -0.16607E-02    32   0.140E+00    0.410E-02
DAV:   2    -0.140721253633E+02   -0.11387E-03   -0.64074E-04    16   0.278E-01    0.282E-02
DAV:   3    -0.140722069299E+02   -0.81567E-04   -0.14603E-05    24   0.384E-02
  383 T=  1616. E= -.13654513E+02 F= -.14072207E+02 E0= -.14072207E+02  EK= 0.41769E+00 SP= 0.00E+00 SK= 0.00E+00
       N       E                     dE             d eps       ncg     rms          rms(c)
DAV:   1    -0.141509328008E+02   -0.78807E-01   -0.39722E-02    24   0.181E+00    0.424E-02
DAV:   2    -0.141510458664E+02   -0.11307E-03   -0.11116E-03    16   0.378E-01    0.231E-02
DAV:   3    -0.141510576889E+02   -0.11822E-04   -0.10711E-05    16   0.339E-02
  384 T=  1909. E= -.13657644E+02 F= -.14151058E+02 E0= -.14151058E+02  EK= 0.49341E+00 SP= 0.00E+00 SK= 0.00E+00
       N       E                     dE             d eps       ncg     rms          rms(c)
DAV:   1    -0.141993945736E+02   -0.48349E-01   -0.60915E-02    16   0.205E+00    0.460E-02
DAV:   2    -0.141996111098E+02   -0.21654E-03   -0.20308E-03    32   0.538E-01    0.274E-02
DAV:   3    -0.141996366026E+02   -0.25493E-04   -0.57048E-06    16   0.248E-02
  385 T=  2092. E= -.13658754E+02 F= -.14199637E+02 E0= -.14199637E+02  EK= 0.54088E+00 SP= 0.00E+00 SK= 0.00E+00
       N       E                     dE             d eps       ncg     rms          rms(c)
DAV:   1    -0.141976431376E+02    0.19680E-02   -0.71017E-02    16   0.201E+00    0.450E-02
DAV:   2    -0.141978159607E+02   -0.17282E-03   -0.18940E-03    32   0.507E-01    0.240E-02
DAV:   3    -0.141978215174E+02   -0.55567E-05   -0.65507E-06    16   0.247E-02
  386 T=  2087. E= -.13658247E+02 F= -.14197822E+02 E0= -.14197822E+02  EK= 0.53957E+00 SP= 0.00E+00 SK= 0.00E+00
       N       E                     dE             d eps       ncg     rms          rms(c)
DAV:   1    -0.141511683794E+02    0.46648E-01   -0.66905E-02    16   0.174E+00    0.406E-02
DAV:   2    -0.141513134752E+02   -0.14510E-03   -0.16715E-03    32   0.443E-01    0.200E-02
DAV:   3    -0.141513199090E+02   -0.64338E-05   -0.69671E-06    32   0.212E-02
  387 T=  1913. E= -.13656864E+02 F= -.14151320E+02 E0= -.14151320E+02  EK= 0.49446E+00 SP= 0.00E+00 SK= 0.00E+00
       N       E                     dE             d eps       ncg     rms          rms(c)
DAV:   1    -0.140797489221E+02    0.71565E-01   -0.58676E-02    32   0.155E+00    0.246E-02
DAV:   2    -0.140798232764E+02   -0.74354E-04   -0.66486E-04    16   0.270E-01
  388 T=  1642. E= -.13655291E+02 F= -.14079823E+02 E0= -.14079823E+02  EK= 0.42453E+00 SP= 0.00E+00 SK= 0.00E+00
       N       E                     dE             d eps       ncg     rms          rms(c)
DAV:   1    -0.140061815914E+02    0.73567E-01   -0.44676E-02    16   0.130E+00    0.451E-02
DAV:   2    -0.140063511788E+02   -0.16959E-03   -0.16673E-03    32   0.370E-01    0.476E-02
DAV:   3    -0.140063444666E+02    0.67122E-05   -0.24505E-05    32   0.366E-02
  389 T=  1363. E= -.13653900E+02 F= -.14006344E+02 E0= -.14006344E+02  EK= 0.35244E+00 SP= 0.00E+00 SK= 0.00E+00
       N       E                     dE             d eps       ncg     rms          rms(c)
DAV:   1    -0.139511335977E+02    0.55218E-01   -0.26756E-02    24   0.970E-01    0.382E-02
DAV:   2    -0.139511624575E+02   -0.28860E-04   -0.58568E-04    16   0.222E-01
  390 T=  1154. E= -.13652953E+02 F= -.13951162E+02 E0= -.13951162E+02  EK= 0.29821E+00 SP= 0.00E+00 SK= 0.00E+00
       N       E                     dE             d eps       ncg     rms          rms(c)
DAV:   1    -0.139285287696E+02    0.22605E-01   -0.20747E-02    24   0.869E-01    0.336E-02
DAV:   2    -0.139285817062E+02   -0.52937E-04   -0.44493E-04    24   0.183E-01
  391 T=  1068. E= -.13652471E+02 F= -.13928582E+02 E0= -.13928582E+02  EK= 0.27611E+00 SP= 0.00E+00 SK= 0.00E+00
       N       E                     dE             d eps       ncg     rms          rms(c)
DAV:   1    -0.139450577250E+02   -0.16529E-01   -0.15898E-02    16   0.842E-01    0.262E-02
DAV:   2    -0.139451312316E+02   -0.73507E-04   -0.39206E-04    24   0.200E-01
  392 T=  1131. E= -.13652642E+02 F= -.13945131E+02 E0= -.13945131E+02  EK= 0.29249E+00 SP= 0.00E+00 SK= 0.00E+00
       N       E                     dE             d eps       ncg     rms          rms(c)
DAV:   1    -0.139976627635E+02   -0.52605E-01   -0.23840E-02    16   0.109E+00    0.217E-02
DAV:   2    -0.139977162974E+02   -0.53534E-04   -0.51362E-04    32   0.247E-01
  393 T=  1331. E= -.13653561E+02 F= -.13997716E+02 E0= -.13997716E+02  EK= 0.34416E+00 SP= 0.00E+00 SK= 0.00E+00
       N       E                     dE             d eps       ncg     rms          rms(c)
DAV:   1    -0.140722148282E+02   -0.74552E-01   -0.43361E-02    32   0.143E+00    0.300E-02
DAV:   2    -0.140722966934E+02   -0.81865E-04   -0.53597E-04    32   0.240E-01
  394 T=  1614. E= -.13655000E+02 F= -.14072297E+02 E0= -.14072297E+02  EK= 0.41730E+00 SP= 0.00E+00 SK= 0.00E+00
       N       E                     dE             d eps       ncg     rms          rms(c)
DAV:   1    -0.141443807318E+02   -0.72166E-01   -0.60699E-02    16   0.171E+00    0.281E-02
DAV:   2    -0.141445868277E+02   -0.20610E-03   -0.17324E-03    32   0.414E-01    0.256E-02
DAV:   3    -0.141446049632E+02   -0.18135E-04   -0.14016E-05    32   0.263E-02
  395 T=  1886. E= -.13656943E+02 F= -.14144605E+02 E0= -.14144605E+02  EK= 0.48766E+00 SP= 0.00E+00 SK= 0.00E+00
       N       E                     dE             d eps       ncg     rms          rms(c)
DAV:   1    -0.141835007461E+02   -0.38914E-01   -0.80476E-02    16   0.197E+00    0.229E-02
DAV:   2    -0.141836821347E+02   -0.18139E-03   -0.17426E-03    32   0.420E-01    0.321E-02
DAV:   3    -0.141836804742E+02    0.16605E-05   -0.13129E-06    16   0.102E-02
  396 T=  2031. E= -.13658646E+02 F= -.14183680E+02 E0= -.14183680E+02  EK= 0.52503E+00 SP= 0.00E+00 SK= 0.00E+00
       N       E                     dE             d eps       ncg     rms          rms(c)
DAV:   1    -0.141638808538E+02    0.19801E-01   -0.79648E-02    16   0.204E+00    0.224E-02
DAV:   2    -0.141641760783E+02   -0.29522E-03   -0.27534E-03    32   0.497E-01    0.513E-02
DAV:   3    -0.141641682848E+02    0.77934E-05   -0.13775E-06    16   0.120E-02
  397 T=  1956. E= -.13658391E+02 F= -.14164168E+02 E0= -.14164168E+02  EK= 0.50578E+00 SP= 0.00E+00 SK= 0.00E+00
       N       E                     dE             d eps       ncg     rms          rms(c)
DAV:   1    -0.140879079005E+02    0.76268E-01   -0.59238E-02    24   0.191E+00    0.477E-02
DAV:   2    -0.140880534577E+02   -0.14556E-03   -0.16363E-03    32   0.412E-01    0.324E-02
DAV:   3    -0.140880651807E+02   -0.11723E-04   -0.12602E-05    16   0.323E-02
  398 T=  1674. E= -.13655319E+02 F= -.14088065E+02 E0= -.14088065E+02  EK= 0.43275E+00 SP= 0.00E+00 SK= 0.00E+00
       N       E                     dE             d eps       ncg     rms          rms(c)
DAV:   1    -0.140002789194E+02    0.87775E-01   -0.40643E-02    32   0.204E+00    0.116E-01
DAV:   2    -0.140002695323E+02    0.93871E-05   -0.14485E-03    16   0.398E-01    0.496E-02
DAV:   3    -0.140003011791E+02   -0.31647E-04   -0.20899E-05    32   0.476E-02
  399 T=  1351. E= -.13651050E+02 F= -.14000301E+02 E0= -.14000301E+02  EK= 0.34925E+00 SP= 0.00E+00 SK= 0.00E+00
       N       E                     dE             d eps       ncg     rms          rms(c)
DAV:   1    -0.139646179631E+02    0.35652E-01   -0.18307E-02    16   0.179E+00    0.379E-02
DAV:   2    -0.139647826663E+02   -0.16470E-03   -0.12195E-03    32   0.370E-01    0.197E-02
DAV:   3    -0.139648506041E+02   -0.67938E-04   -0.29459E-05    16   0.452E-02
  400 T=  1221. E= -.13649237E+02 F= -.13964851E+02 E0= -.13964851E+02  EK= 0.31561E+00 SP= 0.00E+00 SK= 0.00E+00
       N       E                     dE             d eps       ncg     rms          rms(c)
DAV:   1    -0.140072744819E+02   -0.42492E-01   -0.10980E-02    16   0.158E+00    0.332E-02
DAV:   2    -0.140074727001E+02   -0.19822E-03   -0.16398E-03    32   0.398E-01    0.342E-02
DAV:   3    -0.140074800076E+02   -0.73075E-05   -0.11585E-05    16   0.278E-02
  401 T=  1376. E= -.13651664E+02 F= -.14007480E+02 E0= -.14007480E+02  EK= 0.35582E+00 SP= 0.00E+00 SK= 0.00E+00
       N       E                     dE             d eps       ncg     rms          rms(c)
DAV:   1    -0.140929618841E+02   -0.85489E-01   -0.27835E-02    16   0.177E+00    0.462E-02
DAV:   2    -0.140930354467E+02   -0.73563E-04   -0.99410E-04    32   0.362E-01
  402 T=  1693. E= -.13655407E+02 F= -.14093035E+02 E0= -.14093035E+02  EK= 0.43763E+00 SP= 0.00E+00 SK= 0.00E+00
       N       E                     dE             d eps       ncg     rms          rms(c)
DAV:   1    -0.141654751333E+02   -0.72513E-01   -0.52383E-02    16   0.196E+00    0.594E-02
DAV:   2    -0.141656216451E+02   -0.14651E-03   -0.13641E-03    32   0.464E-01    0.383E-02
DAV:   3    -0.141656694078E+02   -0.47763E-04   -0.20692E-05    16   0.534E-02
  403 T=  1966. E= -.13657339E+02 F= -.14165669E+02 E0= -.14165669E+02  EK= 0.50833E+00 SP= 0.00E+00 SK= 0.00E+00
       N       E                     dE             d eps       ncg     rms          rms(c)
DAV:   1    -0.141923107433E+02   -0.26689E-01   -0.71866E-02    32   0.197E+00    0.347E-02
DAV:   2    -0.141924045007E+02   -0.93757E-04   -0.93619E-04    32   0.348E-01
  404 T=  2070. E= -.13657373E+02 F= -.14192405E+02 E0= -.14192405E+02  EK= 0.53503E+00 SP= 0.00E+00 SK= 0.00E+00
       N       E                     dE             d eps       ncg     rms          rms(c)
DAV:   1    -0.141696867731E+02    0.22624E-01   -0.73789E-02    32   0.171E+00    0.592E-02
DAV:   2    -0.141697112856E+02   -0.24513E-04   -0.57856E-04    24   0.265E-01
  405 T=  1986. E= -.13656359E+02 F= -.14169711E+02 E0= -.14169711E+02  EK= 0.51335E+00 SP= 0.00E+00 SK= 0.00E+00
       N       E                     dE             d eps       ncg     rms          rms(c)
DAV:   1    -0.141127555738E+02    0.56931E-01   -0.65694E-02    16   0.153E+00    0.407E-02
DAV:   2    -0.141128789602E+02   -0.12339E-03   -0.13906E-03    32   0.391E-01    0.228E-02
DAV:   3    -0.141128853273E+02   -0.63672E-05   -0.12707E-05    16   0.290E-02
  406 T=  1772. E= -.13654846E+02 F= -.14112885E+02 E0= -.14112885E+02  EK= 0.45804E+00 SP= 0.00E+00 SK= 0.00E+00
       N       E                     dE             d eps       ncg     rms          rms(c)
DAV:   1    -0.140446270982E+02    0.68252E-01   -0.52791E-02    24   0.131E+00    0.496E-02
DAV:   2    -0.140447133212E+02   -0.86223E-04   -0.90609E-04    24   0.308E-01
  407 T=  1514. E= -.13653340E+02 F= -.14044713E+02 E0= -.14044713E+02  EK= 0.39137E+00 SP= 0.00E+00 SK= 0.00E+00
       N       E                     dE             d eps       ncg     rms          rms(c)
DAV:   1    -0.139871424892E+02    0.57485E-01   -0.37049E-02    24   0.108E+00    0.671E-02
DAV:   2    -0.139872204045E+02   -0.77915E-04   -0.81834E-04    24   0.253E-01
  408 T=  1296. E= -.13652130E+02 F= -.13987220E+02 E0= -.13987220E+02  EK= 0.33509E+00 SP= 0.00E+00 SK= 0.00E+00
       N       E                     dE             d eps       ncg     rms          rms(c)
DAV:   1    -0.139570646797E+02    0.30078E-01   -0.22316E-02    16   0.821E-01    0.300E-02
DAV:   2    -0.139571190039E+02   -0.54324E-04   -0.67476E-04    32   0.238E-01
  409 T=  1182. E= -.13651463E+02 F= -.13957119E+02 E0= -.13957119E+02  EK= 0.30566E+00 SP= 0.00E+00 SK= 0.00E+00
       N       E                     dE             d eps       ncg     rms          rms(c)
DAV:   1    -0.139630208972E+02   -0.59562E-02   -0.20985E-02    16   0.857E-01    0.426E-02
DAV:   2    -0.139630771665E+02   -0.56269E-04   -0.42350E-04    32   0.208E-01
  410 T=  1205. E= -.13651450E+02 F= -.13963077E+02 E0= -.13963077E+02  EK= 0.31163E+00 SP= 0.00E+00 SK= 0.00E+00
       N       E                     dE             d eps       ncg     rms          rms(c)
DAV:   1    -0.140039244059E+02   -0.40904E-01   -0.26181E-02    16   0.101E+00    0.187E-02
DAV:   2    -0.140039798326E+02   -0.55427E-04   -0.38537E-04    32   0.224E-01
  411 T=  1361. E= -.13652223E+02 F= -.14003980E+02 E0= -.14003980E+02  EK= 0.35176E+00 SP= 0.00E+00 SK= 0.00E+00
       N       E                     dE             d eps       ncg     rms          rms(c)
DAV:   1    -0.140677469604E+02   -0.63823E-01   -0.41102E-02    16   0.131E+00    0.176E-02
DAV:   2    -0.140678352953E+02   -0.88335E-04   -0.60372E-04    32   0.277E-01
  412 T=  1602. E= -.13653611E+02 F= -.14067835E+02 E0= -.14067835E+02  EK= 0.41422E+00 SP= 0.00E+00 SK= 0.00E+00
       N       E                     dE             d eps       ncg     rms          rms(c)
DAV:   1    -0.141326274693E+02   -0.64881E-01   -0.62079E-02    32   0.164E+00    0.279E-02
DAV:   2    -0.141327560821E+02   -0.12861E-03   -0.71993E-04    16   0.303E-01    0.241E-02
DAV:   3    -0.141328101123E+02   -0.54030E-04   -0.28350E-05    32   0.409E-02
  413 T=  1847. E= -.13655445E+02 F= -.14132810E+02 E0= -.14132810E+02  EK= 0.47737E+00 SP= 0.00E+00 SK= 0.00E+00
       N       E                     dE             d eps       ncg     rms          rms(c)
DAV:   1    -0.141709763217E+02   -0.38220E-01   -0.75991E-02    16   0.187E+00    0.233E-02
DAV:   2    -0.141712172860E+02   -0.24096E-03   -0.22055E-03    24   0.443E-01    0.329E-02
DAV:   3    -0.141712147684E+02    0.25176E-05   -0.15174E-05    16   0.298E-02
  414 T=  1989. E= -.13657051E+02 F= -.14171215E+02 E0= -.14171215E+02  EK= 0.51416E+00 SP= 0.00E+00 SK= 0.00E+00
       N       E                     dE             d eps       ncg     rms          rms(c)
DAV:   1    -0.141597169633E+02    0.11500E-01   -0.76550E-02    16   0.193E+00    0.169E-02
DAV:   2    -0.141599325937E+02   -0.21563E-03   -0.17908E-03    24   0.425E-01    0.381E-02
DAV:   3    -0.141599292295E+02    0.33643E-05   -0.87399E-07    16   0.110E-02
  415 T=  1945. E= -.13657000E+02 F= -.14159929E+02 E0= -.14159929E+02  EK= 0.50293E+00 SP= 0.00E+00 SK= 0.00E+00
       N       E                     dE             d eps       ncg     rms          rms(c)
DAV:   1    -0.140981820203E+02    0.61751E-01   -0.62707E-02    16   0.189E+00    0.604E-02
DAV:   2    -0.140983797741E+02   -0.19775E-03   -0.14570E-03    24   0.379E-01    0.623E-02
DAV:   3    -0.140983775006E+02    0.22735E-05   -0.10928E-05    16   0.309E-02
  416 T=  1717. E= -.13654541E+02 F= -.14098378E+02 E0= -.14098378E+02  EK= 0.44384E+00 SP= 0.00E+00 SK= 0.00E+00
       N       E                     dE             d eps       ncg     rms          rms(c)
DAV:   1    -0.140211212802E+02    0.77258E-01   -0.39219E-02    16   0.179E+00    0.218E-01
DAV:   2    -0.140206488658E+02    0.47241E-03   -0.43493E-03    24   0.599E-01    0.743E-02
DAV:   3    -0.140207094533E+02   -0.60587E-04   -0.73863E-05    24   0.823E-02
  417 T=  1430. E= -.13651095E+02 F= -.14020709E+02 E0= -.14020709E+02  EK= 0.36961E+00 SP= 0.00E+00 SK= 0.00E+00
       N       E                     dE             d eps       ncg     rms          rms(c)
DAV:   1    -0.139778578120E+02    0.42791E-01   -0.20804E-02    16   0.175E+00    0.713E-02
DAV:   2    -0.139780753683E+02   -0.21756E-03   -0.20141E-03    24   0.446E-01    0.418E-02
DAV:   3    -0.139781368072E+02   -0.61439E-04   -0.59642E-05    16   0.802E-02
  418 T=  1272. E= -.13649259E+02 F= -.13978137E+02 E0= -.13978137E+02  EK= 0.32888E+00 SP= 0.00E+00 SK= 0.00E+00
       N       E                     dE             d eps       ncg     rms          rms(c)
DAV:   1    -0.139971907935E+02   -0.19115E-01   -0.12333E-02    16   0.149E+00    0.488E-02
DAV:   2    -0.139973136923E+02   -0.12290E-03   -0.13689E-03    32   0.373E-01    0.260E-02
DAV:   3    -0.139973374241E+02   -0.23732E-04   -0.50870E-05    16   0.625E-02
  419 T=  1341. E= -.13650762E+02 F= -.13997337E+02 E0= -.13997337E+02  EK= 0.34658E+00 SP= 0.00E+00 SK= 0.00E+00
       N       E                     dE             d eps       ncg     rms          rms(c)
DAV:   1    -0.140578301496E+02   -0.60516E-01   -0.21682E-02    24   0.171E+00    0.449E-02
DAV:   2    -0.140579674747E+02   -0.13733E-03   -0.11453E-03    16   0.382E-01    0.261E-02
DAV:   3    -0.140580038053E+02   -0.36331E-04   -0.95189E-06    24   0.303E-02
  420 T=  1565. E= -.13653486E+02 F= -.14058004E+02 E0= -.14058004E+02  EK= 0.40452E+00 SP= 0.00E+00 SK= 0.00E+00
       N       E                     dE             d eps       ncg     rms          rms(c)
DAV:   1    -0.141186664090E+02   -0.60699E-01   -0.39812E-02    24   0.197E+00    0.423E-02
DAV:   2    -0.141188254108E+02   -0.15900E-03   -0.12142E-03    16   0.415E-01    0.247E-02
DAV:   3    -0.141188708240E+02   -0.45413E-04   -0.99075E-06    16   0.317E-02
  421 T=  1793. E= -.13655308E+02 F= -.14118871E+02 E0= -.14118871E+02  EK= 0.46356E+00 SP= 0.00E+00 SK= 0.00E+00
       N       E                     dE             d eps       ncg     rms          rms(c)
DAV:   1    -0.141489347616E+02   -0.30109E-01   -0.55660E-02    24   0.202E+00    0.435E-02
DAV:   2    -0.141490674785E+02   -0.13272E-03   -0.14392E-03    24   0.434E-01    0.250E-02
DAV:   3    -0.141490739703E+02   -0.64918E-05   -0.49015E-06    16   0.242E-02
  422 T=  1908. E= -.13655821E+02 F= -.14149074E+02 E0= -.14149074E+02  EK= 0.49325E+00 SP= 0.00E+00 SK= 0.00E+00
       N       E                     dE             d eps       ncg     rms          rms(c)
DAV:   1    -0.141380633534E+02    0.11004E-01   -0.61827E-02    24   0.194E+00    0.385E-02
DAV:   2    -0.141381689443E+02   -0.10559E-03   -0.11246E-03    24   0.376E-01    0.177E-02
DAV:   3    -0.141381815600E+02   -0.12616E-04   -0.40325E-06    16   0.187E-02
  423 T=  1868. E= -.13655213E+02 F= -.14138182E+02 E0= -.14138182E+02  EK= 0.48297E+00 SP= 0.00E+00 SK= 0.00E+00
       N       E                     dE             d eps       ncg     rms          rms(c)
DAV:   1    -0.140929707525E+02    0.45198E-01   -0.58934E-02    16   0.178E+00    0.347E-02
DAV:   2    -0.140930761389E+02   -0.10539E-03   -0.12089E-03    24   0.371E-01    0.177E-02
DAV:   3    -0.140930811723E+02   -0.50334E-05   -0.76230E-06    24   0.227E-02
  424 T=  1698. E= -.13654039E+02 F= -.14093081E+02 E0= -.14093081E+02  EK= 0.43904E+00 SP= 0.00E+00 SK= 0.00E+00
       N       E                     dE             d eps       ncg     rms          rms(c)
DAV:   1    -0.140305828978E+02    0.62493E-01   -0.49548E-02    24   0.158E+00    0.301E-02
DAV:   2    -0.140306853009E+02   -0.10240E-03   -0.11204E-03    24   0.347E-01    0.221E-02
DAV:   3    -0.140306862847E+02   -0.98376E-06   -0.96107E-06    24   0.256E-02
  425 T=  1462. E= -.13652631E+02 F= -.14030686E+02 E0= -.14030686E+02  EK= 0.37806E+00 SP= 0.00E+00 SK= 0.00E+00
       N       E                     dE             d eps       ncg     rms          rms(c)
DAV:   1    -0.139714826550E+02    0.59203E-01   -0.36188E-02    16   0.132E+00    0.274E-02
DAV:   2    -0.139716024802E+02   -0.11983E-03   -0.12244E-03    24   0.332E-01    0.254E-02
DAV:   3    -0.139716027562E+02   -0.27598E-06   -0.13459E-05    16   0.283E-02
  426 T=  1239. E= -.13651358E+02 F= -.13971603E+02 E0= -.13971603E+02  EK= 0.32024E+00 SP= 0.00E+00 SK= 0.00E+00
       N       E                     dE             d eps       ncg     rms          rms(c)
DAV:   1    -0.139343413449E+02    0.37261E-01   -0.25755E-02    24   0.102E+00    0.187E-02
DAV:   2    -0.139343950196E+02   -0.53675E-04   -0.47444E-04    24   0.203E-01
  427 T=  1098. E= -.13650532E+02 F= -.13934395E+02 E0= -.13934395E+02  EK= 0.28386E+00 SP= 0.00E+00 SK= 0.00E+00
       N       E                     dE             d eps       ncg     rms          rms(c)
DAV:   1    -0.139313161980E+02    0.30251E-02   -0.21950E-02    24   0.803E-01    0.499E-02
DAV:   2    -0.139313401275E+02   -0.23929E-04   -0.31427E-04    24   0.170E-01
  428 T=  1087. E= -.13650262E+02 F= -.13931340E+02 E0= -.13931340E+02  EK= 0.28108E+00 SP= 0.00E+00 SK= 0.00E+00
       N       E                     dE             d eps       ncg     rms          rms(c)
DAV:   1    -0.139661243798E+02   -0.34808E-01   -0.26848E-02    24   0.821E-01    0.266E-02
DAV:   2    -0.139661551800E+02   -0.30800E-04   -0.39857E-04    24   0.194E-01
  429 T=  1220. E= -.13650670E+02 F= -.13966155E+02 E0= -.13966155E+02  EK= 0.31549E+00 SP= 0.00E+00 SK= 0.00E+00
       N       E                     dE             d eps       ncg     rms          rms(c)
DAV:   1    -0.140321613448E+02   -0.66037E-01   -0.42751E-02    16   0.105E+00    0.247E-02
DAV:   2    -0.140322455390E+02   -0.84194E-04   -0.74631E-04    24   0.263E-01
  430 T=  1472. E= -.13651685E+02 F= -.14032246E+02 E0= -.14032246E+02  EK= 0.38056E+00 SP= 0.00E+00 SK= 0.00E+00
       N       E                     dE             d eps       ncg     rms          rms(c)
DAV:   1    -0.141122449840E+02   -0.80084E-01   -0.66354E-02    16   0.132E+00    0.345E-02
DAV:   2    -0.141123387966E+02   -0.93813E-04   -0.79031E-04    24   0.273E-01
  431 T=  1776. E= -.13653262E+02 F= -.14112339E+02 E0= -.14112339E+02  EK= 0.45908E+00 SP= 0.00E+00 SK= 0.00E+00
       N       E                     dE             d eps       ncg     rms          rms(c)
DAV:   1    -0.141798478561E+02   -0.67603E-01   -0.85506E-02    16   0.159E+00    0.383E-02
DAV:   2    -0.141800456089E+02   -0.19775E-03   -0.21117E-03    24   0.420E-01    0.340E-02
DAV:   3    -0.141800418669E+02    0.37420E-05   -0.20929E-05    24   0.338E-02
  432 T=  2030. E= -.13655117E+02 F= -.14180042E+02 E0= -.14180042E+02  EK= 0.52493E+00 SP= 0.00E+00 SK= 0.00E+00
       N       E                     dE             d eps       ncg     rms          rms(c)
DAV:   1    -0.142061760936E+02   -0.26130E-01   -0.10044E-01    16   0.178E+00    0.199E-02
DAV:   2    -0.142064130035E+02   -0.23691E-03   -0.22332E-03    32   0.427E-01    0.325E-02
DAV:   3    -0.142064099355E+02    0.30681E-05   -0.61854E-06    16   0.194E-02
  433 T=  2128. E= -.13656187E+02 F= -.14206410E+02 E0= -.14206410E+02  EK= 0.55022E+00 SP= 0.00E+00 SK= 0.00E+00
       N       E                     dE             d eps       ncg     rms          rms(c)
DAV:   1    -0.141742729954E+02    0.32140E-01   -0.94710E-02    16   0.183E+00    0.367E-02
DAV:   2    -0.141745323262E+02   -0.25933E-03   -0.23593E-03    24   0.431E-01    0.523E-02
DAV:   3    -0.141745203555E+02    0.11971E-04   -0.22752E-06    24   0.161E-02
  434 T=  2009. E= -.13655090E+02 F= -.14174520E+02 E0= -.14174520E+02  EK= 0.51943E+00 SP= 0.00E+00 SK= 0.00E+00
       N       E                     dE             d eps       ncg     rms          rms(c)
DAV:   1    -0.140975777840E+02    0.76955E-01   -0.61654E-02    16   0.159E+00    0.726E-02
DAV:   2    -0.140975828501E+02   -0.50661E-05   -0.13897E-03    16   0.362E-01    0.245E-02
DAV:   3    -0.140975818508E+02    0.99928E-06   -0.14774E-05    24   0.384E-02
  435 T=  1724. E= -.13651940E+02 F= -.14097582E+02 E0= -.14097582E+02  EK= 0.44564E+00 SP= 0.00E+00 SK= 0.00E+00
       N       E                     dE             d eps       ncg     rms          rms(c)
DAV:   1    -0.140212245866E+02    0.76358E-01   -0.41884E-02    16   0.196E+00    0.833E-02
DAV:   2    -0.140213043094E+02   -0.79723E-04   -0.12033E-03    32   0.355E-01    0.396E-02
DAV:   3    -0.140213415666E+02   -0.37257E-04   -0.79624E-06    16   0.271E-02
  436 T=  1442. E= -.13648682E+02 F= -.14021342E+02 E0= -.14021342E+02  EK= 0.37266E+00 SP= 0.00E+00 SK= 0.00E+00
       N       E                     dE             d eps       ncg     rms          rms(c)
DAV:   1    -0.139939053553E+02    0.27399E-01   -0.16975E-02    24   0.183E+00    0.495E-02
DAV:   2    -0.139940644251E+02   -0.15907E-03   -0.16001E-03    16   0.436E-01    0.249E-02
DAV:   3    -0.139940880667E+02   -0.23642E-04   -0.24214E-05    32   0.432E-02
  437 T=  1338. E= -.13648114E+02 F= -.13994088E+02 E0= -.13994088E+02  EK= 0.34597E+00 SP= 0.00E+00 SK= 0.00E+00
       N       E                     dE             d eps       ncg     rms          rms(c)
DAV:   1    -0.140255999802E+02   -0.31536E-01   -0.11209E-02    24   0.187E+00    0.508E-02
DAV:   2    -0.140257332722E+02   -0.13329E-03   -0.15582E-03    16   0.451E-01    0.344E-02
DAV:   3    -0.140257348919E+02   -0.16197E-05   -0.17299E-05    32   0.434E-02
  438 T=  1452. E= -.13650285E+02 F= -.14025735E+02 E0= -.14025735E+02  EK= 0.37545E+00 SP= 0.00E+00 SK= 0.00E+00
       N       E                     dE             d eps       ncg     rms          rms(c)
DAV:   1    -0.140854352785E+02   -0.59702E-01   -0.23685E-02    16   0.203E+00    0.431E-02
DAV:   2    -0.140855929001E+02   -0.15762E-03   -0.15301E-03    32   0.470E-01    0.294E-02
DAV:   3    -0.140856033469E+02   -0.10447E-04   -0.88835E-06    16   0.340E-02
  439 T=  1674. E= -.13652904E+02 F= -.14085603E+02 E0= -.14085603E+02  EK= 0.43270E+00 SP= 0.00E+00 SK= 0.00E+00
       N       E                     dE             d eps       ncg     rms          rms(c)
DAV:   1    -0.141330599749E+02   -0.47467E-01   -0.42151E-02    32   0.208E+00    0.410E-02
DAV:   2    -0.141331482231E+02   -0.88248E-04   -0.93890E-04    16   0.352E-01
  440 T=  1852. E= -.13654472E+02 F= -.14133148E+02 E0= -.14133148E+02  EK= 0.47868E+00 SP= 0.00E+00 SK= 0.00E+00
       N       E                     dE             d eps       ncg     rms          rms(c)
DAV:   1    -0.141426138135E+02   -0.95538E-02   -0.53763E-02    16   0.197E+00    0.568E-02
DAV:   2    -0.141427157468E+02   -0.10193E-03   -0.12819E-03    16   0.431E-01    0.375E-02
DAV:   3    -0.141427173013E+02   -0.15545E-05   -0.15371E-05    32   0.415E-02
  441 T=  1888. E= -.13654601E+02 F= -.14142717E+02 E0= -.14142717E+02  EK= 0.48812E+00 SP= 0.00E+00 SK= 0.00E+00
       N       E                     dE             d eps       ncg     rms          rms(c)
DAV:   1    -0.141107121302E+02    0.32004E-01   -0.54992E-02    16   0.184E+00    0.481E-02
DAV:   2    -0.141107784421E+02   -0.66312E-04   -0.11311E-03    24   0.372E-01    0.174E-02
DAV:   3    -0.141107816981E+02   -0.32560E-05   -0.59627E-06    24   0.222E-02
  442 T=  1769. E= -.13653572E+02 F= -.14110782E+02 E0= -.14110782E+02  EK= 0.45721E+00 SP= 0.00E+00 SK= 0.00E+00
       N       E                     dE             d eps       ncg     rms          rms(c)
DAV:   1    -0.140514046021E+02    0.59374E-01   -0.49590E-02    24   0.166E+00    0.296E-02
DAV:   2    -0.140514970145E+02   -0.92412E-04   -0.10132E-03    24   0.332E-01    0.187E-02
DAV:   3    -0.140514981839E+02   -0.11694E-05   -0.60545E-06    24   0.200E-02
  443 T=  1545. E= -.13652021E+02 F= -.14051498E+02 E0= -.14051498E+02  EK= 0.39948E+00 SP= 0.00E+00 SK= 0.00E+00
       N       E                     dE             d eps       ncg     rms          rms(c)
DAV:   1    -0.139873685435E+02    0.64128E-01   -0.38095E-02    24   0.147E+00    0.261E-02
DAV:   2    -0.139874569966E+02   -0.88453E-04   -0.10163E-03    24   0.315E-01    0.223E-02
DAV:   3    -0.139874548667E+02    0.21299E-05   -0.84675E-06    24   0.240E-02
  444 T=  1303. E= -.13650546E+02 F= -.13987455E+02 E0= -.13987455E+02  EK= 0.33691E+00 SP= 0.00E+00 SK= 0.00E+00
       N       E                     dE             d eps       ncg     rms          rms(c)
DAV:   1    -0.139405574785E+02    0.46900E-01   -0.25235E-02    16   0.118E+00    0.206E-02
DAV:   2    -0.139406540049E+02   -0.96526E-04   -0.97489E-04    32   0.297E-01
  445 T=  1126. E= -.13649469E+02 F= -.13940654E+02 E0= -.13940654E+02  EK= 0.29118E+00 SP= 0.00E+00 SK= 0.00E+00
       N       E                     dE             d eps       ncg     rms          rms(c)
DAV:   1    -0.139265102366E+02    0.14047E-01   -0.19209E-02    16   0.953E-01    0.485E-02
DAV:   2    -0.139265488803E+02   -0.38644E-04   -0.56998E-04    32   0.238E-01
  446 T=  1074. E= -.13648999E+02 F= -.13926549E+02 E0= -.13926549E+02  EK= 0.27755E+00 SP= 0.00E+00 SK= 0.00E+00
       N       E                     dE             d eps       ncg     rms          rms(c)
DAV:   1    -0.139510761375E+02   -0.24566E-01   -0.22300E-02    24   0.886E-01    0.375E-02
DAV:   2    -0.139510950833E+02   -0.18946E-04   -0.59224E-04    24   0.218E-01
  447 T=  1167. E= -.13649340E+02 F= -.13951095E+02 E0= -.13951095E+02  EK= 0.30175E+00 SP= 0.00E+00 SK= 0.00E+00
       N       E                     dE             d eps       ncg     rms          rms(c)
DAV:   1    -0.140089006659E+02   -0.57825E-01   -0.35217E-02    16   0.101E+00    0.272E-02
DAV:   2    -0.140089573027E+02   -0.56637E-04   -0.68513E-04    24   0.262E-01
  448 T=  1387. E= -.13650346E+02 F= -.14008957E+02 E0= -.14008957E+02  EK= 0.35861E+00 SP= 0.00E+00 SK= 0.00E+00
       N       E                     dE             d eps       ncg     rms          rms(c)
DAV:   1    -0.140837152055E+02   -0.74815E-01   -0.56999E-02    24   0.124E+00    0.284E-02
DAV:   2    -0.140837998068E+02   -0.84601E-04   -0.66191E-04    24   0.272E-01
  449 T=  1671. E= -.13651885E+02 F= -.14083800E+02 E0= -.14083800E+02  EK= 0.43191E+00 SP= 0.00E+00 SK= 0.00E+00
       N       E                     dE             d eps       ncg     rms          rms(c)
DAV:   1    -0.141502576260E+02   -0.66542E-01   -0.75585E-02    16   0.148E+00    0.244E-02
DAV:   2    -0.141504187891E+02   -0.16116E-03   -0.15694E-03    32   0.404E-01    0.288E-02
DAV:   3    -0.141504194679E+02   -0.67879E-06   -0.10736E-05    16   0.241E-02
  450 T=  1922. E= -.13653665E+02 F= -.14150419E+02 E0= -.14150419E+02  EK= 0.49675E+00 SP= 0.00E+00 SK= 0.00E+00
       N       E                     dE             d eps       ncg     rms          rms(c)
DAV:   1    -0.141815936184E+02   -0.31175E-01   -0.88028E-02    16   0.164E+00    0.238E-02
DAV:   2    -0.141817941011E+02   -0.20048E-03   -0.19872E-03    32   0.427E-01    0.322E-02
DAV:   3    -0.141817875999E+02    0.65012E-05   -0.11076E-05    16   0.247E-02
  451 T=  2039. E= -.13654671E+02 F= -.14181788E+02 E0= -.14181788E+02  EK= 0.52712E+00 SP= 0.00E+00 SK= 0.00E+00
       N       E                     dE             d eps       ncg     rms          rms(c)
DAV:   1    -0.141629989650E+02    0.18795E-01   -0.82887E-02    16   0.170E+00    0.315E-02
DAV:   2    -0.141632146479E+02   -0.21568E-03   -0.20415E-03    32   0.439E-01    0.407E-02
DAV:   3    -0.141632087098E+02    0.59381E-05   -0.11622E-05    16   0.274E-02
  452 T=  1970. E= -.13653811E+02 F= -.14163209E+02 E0= -.14163209E+02  EK= 0.50940E+00 SP= 0.00E+00 SK= 0.00E+00
       N       E                     dE             d eps       ncg     rms          rms(c)
DAV:   1    -0.141072393174E+02    0.55975E-01   -0.60780E-02    24   0.168E+00    0.867E-02
DAV:   2    -0.141072119943E+02    0.27323E-04   -0.17130E-03    16   0.403E-01    0.204E-02
DAV:   3    -0.141072184322E+02   -0.64380E-05   -0.16696E-05    32   0.418E-02
  453 T=  1764. E= -.13651312E+02 F= -.14107218E+02 E0= -.14107218E+02  EK= 0.45591E+00 SP= 0.00E+00 SK= 0.00E+00
       N       E                     dE             d eps       ncg     rms          rms(c)
DAV:   1    -0.140520166865E+02    0.55195E-01   -0.38937E-02    16   0.169E+00    0.415E-02
DAV:   2    -0.140521262900E+02   -0.10960E-03   -0.12367E-03    32   0.372E-01    0.230E-02
DAV:   3    -0.140521316172E+02   -0.53273E-05   -0.62857E-06    16   0.282E-02
  454 T=  1560. E= -.13648814E+02 F= -.14052132E+02 E0= -.14052132E+02  EK= 0.40332E+00 SP= 0.00E+00 SK= 0.00E+00
       N       E                     dE             d eps       ncg     rms          rms(c)
DAV:   1    -0.140353847579E+02    0.16742E-01   -0.18666E-02    24   0.154E+00    0.449E-02
DAV:   2    -0.140354863167E+02   -0.10156E-03   -0.12688E-03    24   0.378E-01    0.226E-02
DAV:   3    -0.140354968351E+02   -0.10518E-04   -0.18080E-05    16   0.362E-02
  455 T=  1497. E= -.13648384E+02 F= -.14035497E+02 E0= -.14035497E+02  EK= 0.38711E+00 SP= 0.00E+00 SK= 0.00E+00
       N       E                     dE             d eps       ncg     rms          rms(c)
DAV:   1    -0.140638526389E+02   -0.28366E-01   -0.14564E-02    16   0.160E+00    0.505E-02
DAV:   2    -0.140639177153E+02   -0.65076E-04   -0.10509E-03    32   0.366E-01    0.250E-02
DAV:   3    -0.140639211018E+02   -0.33865E-05   -0.52389E-06    24   0.258E-02
  456 T=  1601. E= -.13649912E+02 F= -.14063921E+02 E0= -.14063921E+02  EK= 0.41401E+00 SP= 0.00E+00 SK= 0.00E+00
       N       E                     dE             d eps       ncg     rms          rms(c)
DAV:   1    -0.141139342948E+02   -0.50017E-01   -0.23514E-02    24   0.175E+00    0.408E-02
DAV:   2    -0.141140119980E+02   -0.77703E-04   -0.80406E-04    16   0.334E-01
  457 T=  1788. E= -.13651857E+02 F= -.14114012E+02 E0= -.14114012E+02  EK= 0.46215E+00 SP= 0.00E+00 SK= 0.00E+00
       N       E                     dE             d eps       ncg     rms          rms(c)
DAV:   1    -0.141541492532E+02   -0.40215E-01   -0.37164E-02    32   0.187E+00    0.585E-02
DAV:   2    -0.141542030888E+02   -0.53836E-04   -0.66129E-04    16   0.315E-01
  458 T=  1938. E= -.13653237E+02 F= -.14154203E+02 E0= -.14154203E+02  EK= 0.50097E+00 SP= 0.00E+00 SK= 0.00E+00
       N       E                     dE             d eps       ncg     rms          rms(c)
DAV:   1    -0.141617022865E+02   -0.75530E-02   -0.46090E-02    24   0.189E+00    0.339E-02
DAV:   2    -0.141617819101E+02   -0.79624E-04   -0.94943E-04    16   0.345E-01
  459 T=  1966. E= -.13653549E+02 F= -.14161782E+02 E0= -.14161782E+02  EK= 0.50823E+00 SP= 0.00E+00 SK= 0.00E+00
       N       E                     dE             d eps       ncg     rms          rms(c)
DAV:   1    -0.141301829101E+02    0.31519E-01   -0.46152E-02    16   0.182E+00    0.478E-02
DAV:   2    -0.141302677498E+02   -0.84840E-04   -0.11100E-03    32   0.360E-01    0.300E-02
DAV:   3    -0.141302705010E+02   -0.27511E-05   -0.10284E-05    16   0.292E-02
  460 T=  1847. E= -.13652774E+02 F= -.14130271E+02 E0= -.14130271E+02  EK= 0.47750E+00 SP= 0.00E+00 SK= 0.00E+00
       N       E                     dE             d eps       ncg     rms          rms(c)
DAV:   1    -0.140695633408E+02    0.60704E-01   -0.40559E-02    24   0.176E+00    0.478E-02
DAV:   2    -0.140696199646E+02   -0.56624E-04   -0.10022E-03    16   0.330E-01    0.242E-02
DAV:   3    -0.140696202806E+02   -0.31603E-06   -0.13794E-05    32   0.381E-02
  461 T=  1618. E= -.13651416E+02 F= -.14069620E+02 E0= -.14069620E+02  EK= 0.41820E+00 SP= 0.00E+00 SK= 0.00E+00
       N       E                     dE             d eps       ncg     rms          rms(c)
DAV:   1    -0.139996026742E+02    0.70017E-01   -0.31324E-02    32   0.156E+00    0.217E-02
DAV:   2    -0.139996640432E+02   -0.61369E-04   -0.62218E-04    32   0.251E-01
  462 T=  1353. E= -.13649930E+02 F= -.13999664E+02 E0= -.13999664E+02  EK= 0.34973E+00 SP= 0.00E+00 SK= 0.00E+00
       N       E                     dE             d eps       ncg     rms          rms(c)
DAV:   1    -0.139419365186E+02    0.57666E-01   -0.21827E-02    16   0.136E+00    0.330E-02
DAV:   2    -0.139420690581E+02   -0.13254E-03   -0.11770E-03    32   0.309E-01    0.374E-02
DAV:   3    -0.139420669708E+02    0.20874E-05   -0.31187E-06    32   0.144E-02
  463 T=  1135. E= -.13648750E+02 F= -.13942067E+02 E0= -.13942067E+02  EK= 0.29332E+00 SP= 0.00E+00 SK= 0.00E+00
       N       E                     dE             d eps       ncg     rms          rms(c)
DAV:   1    -0.139137853402E+02    0.28284E-01   -0.15352E-02    16   0.110E+00    0.228E-02
DAV:   2    -0.139138393896E+02   -0.54049E-04   -0.57084E-04    32   0.252E-01
  464 T=  1028. E= -.13648176E+02 F= -.13913839E+02 E0= -.13913839E+02  EK= 0.26566E+00 SP= 0.00E+00 SK= 0.00E+00
       N       E                     dE             d eps       ncg     rms          rms(c)
DAV:   1    -0.139235545457E+02   -0.97692E-02   -0.19224E-02    32   0.948E-01    0.255E-02
DAV:   2    -0.139235951673E+02   -0.40622E-04   -0.35866E-04    16   0.187E-01
  465 T=  1065. E= -.13648260E+02 F= -.13923595E+02 E0= -.13923595E+02  EK= 0.27533E+00 SP= 0.00E+00 SK= 0.00E+00
       N       E                     dE             d eps       ncg     rms          rms(c)
DAV:   1    -0.139699437801E+02   -0.46389E-01   -0.31418E-02    24   0.950E-01    0.149E-02
DAV:   2    -0.139700041707E+02   -0.60391E-04   -0.45408E-04    32   0.204E-01
  466 T=  1242. E= -.13648952E+02 F= -.13970004E+02 E0= -.13970004E+02  EK= 0.32105E+00 SP= 0.00E+00 SK= 0.00E+00
       N       E                     dE             d eps       ncg     rms          rms(c)
DAV:   1    -0.140413786835E+02   -0.71435E-01   -0.49716E-02    16   0.112E+00    0.270E-02
DAV:   2    -0.140415114869E+02   -0.13280E-03   -0.11742E-03    24   0.325E-01    0.298E-02
DAV:   3    -0.140415168938E+02   -0.54069E-05   -0.85317E-06    16   0.209E-02
  467 T=  1514. E= -.13650178E+02 F= -.14041517E+02 E0= -.14041517E+02  EK= 0.39134E+00 SP= 0.00E+00 SK= 0.00E+00
       N       E                     dE             d eps       ncg     rms          rms(c)
DAV:   1    -0.141174279046E+02   -0.75916E-01   -0.71103E-02    24   0.134E+00    0.220E-02
DAV:   2    -0.141175520997E+02   -0.12420E-03   -0.12117E-03    32   0.332E-01    0.220E-02
DAV:   3    -0.141175501014E+02    0.19983E-05   -0.87071E-06    16   0.209E-02
  468 T=  1802. E= -.13651799E+02 F= -.14117550E+02 E0= -.14117550E+02  EK= 0.46575E+00 SP= 0.00E+00 SK= 0.00E+00
       N       E                     dE             d eps       ncg     rms          rms(c)
DAV:   1    -0.141723062585E+02   -0.54754E-01   -0.90676E-02    16   0.155E+00    0.249E-02
DAV:   2    -0.141725879009E+02   -0.28164E-03   -0.25830E-03    24   0.444E-01    0.484E-02
DAV:   3    -0.141725775936E+02    0.10307E-04   -0.13595E-05    32   0.278E-02
  469 T=  2010. E= -.13652960E+02 F= -.14172578E+02 E0= -.14172578E+02  EK= 0.51962E+00 SP= 0.00E+00 SK= 0.00E+00
       N       E                     dE             d eps       ncg     rms          rms(c)
DAV:   1    -0.141856268849E+02   -0.13039E-01   -0.94363E-02    16   0.161E+00    0.373E-02
DAV:   2    -0.141858470045E+02   -0.22012E-03   -0.18639E-03    32   0.398E-01    0.481E-02
DAV:   3    -0.141858422448E+02    0.47596E-05   -0.20521E-06    16   0.124E-02
  470 T=  2062. E= -.13652893E+02 F= -.14185842E+02 E0= -.14185842E+02  EK= 0.53295E+00 SP= 0.00E+00 SK= 0.00E+00
       N       E                     dE             d eps       ncg     rms          rms(c)
DAV:   1    -0.141543597155E+02    0.31487E-01   -0.76277E-02    16   0.149E+00    0.827E-02
DAV:   2    -0.141543937384E+02   -0.34023E-04   -0.18992E-03    32   0.401E-01    0.238E-02
DAV:   3    -0.141543996859E+02   -0.59475E-05   -0.18096E-05    16   0.329E-02
  471 T=  1946. E= -.13651426E+02 F= -.14154400E+02 E0= -.14154400E+02  EK= 0.50297E+00 SP= 0.00E+00 SK= 0.00E+00
       N       E                     dE             d eps       ncg     rms          rms(c)
DAV:   1    -0.141001550607E+02    0.54239E-01   -0.59742E-02    16   0.170E+00    0.498E-02
DAV:   2    -0.141002644465E+02   -0.10939E-03   -0.12399E-03    32   0.350E-01    0.249E-02
DAV:   3    -0.141002793932E+02   -0.14947E-04   -0.10440E-05    16   0.286E-02
  472 T=  1745. E= -.13649079E+02 F= -.14100279E+02 E0= -.14100279E+02  EK= 0.45120E+00 SP= 0.00E+00 SK= 0.00E+00
       N       E                     dE             d eps       ncg     rms          rms(c)
DAV:   1    -0.140594571799E+02    0.40807E-01   -0.35803E-02    16   0.179E+00    0.600E-02
DAV:   2    -0.140595779396E+02   -0.12076E-03   -0.18733E-03    32   0.434E-01    0.271E-02
DAV:   3    -0.140595809863E+02   -0.30467E-05   -0.75058E-06    16   0.264E-02
  473 T=  1594. E= -.13647562E+02 F= -.14059581E+02 E0= -.14059581E+02  EK= 0.41202E+00 SP= 0.00E+00 SK= 0.00E+00
       N       E                     dE             d eps       ncg     rms          rms(c)
DAV:   1    -0.140569735148E+02    0.26044E-02   -0.26398E-02    32   0.194E+00    0.527E-02
DAV:   2    -0.140571247780E+02   -0.15126E-03   -0.15326E-03    16   0.443E-01    0.320E-02
DAV:   3    -0.140571499383E+02   -0.25160E-04   -0.20254E-05    32   0.427E-02
  474 T=  1584. E= -.13647722E+02 F= -.14057150E+02 E0= -.14057150E+02  EK= 0.40943E+00 SP= 0.00E+00 SK= 0.00E+00
       N       E                     dE             d eps       ncg     rms          rms(c)
DAV:   1    -0.140914475739E+02   -0.34323E-01   -0.31419E-02    32   0.214E+00    0.520E-02
DAV:   2    -0.140915583588E+02   -0.11078E-03   -0.12220E-03    16   0.407E-01    0.321E-02
DAV:   3    -0.140915755867E+02   -0.17228E-04   -0.18595E-05    32   0.460E-02
  475 T=  1710. E= -.13649394E+02 F= -.14091576E+02 E0= -.14091576E+02  EK= 0.44218E+00 SP= 0.00E+00 SK= 0.00E+00
       N       E                     dE             d eps       ncg     rms          rms(c)
DAV:   1    -0.141383430007E+02   -0.46785E-01   -0.36065E-02    32   0.220E+00    0.408E-02
DAV:   2    -0.141383983777E+02   -0.55377E-04   -0.67691E-04    32   0.291E-01
  476 T=  1884. E= -.13651452E+02 F= -.14138398E+02 E0= -.14138398E+02  EK= 0.48695E+00 SP= 0.00E+00 SK= 0.00E+00
       N       E                     dE             d eps       ncg     rms          rms(c)
DAV:   1    -0.141662017899E+02   -0.27859E-01   -0.44875E-02    16   0.218E+00    0.520E-02
DAV:   2    -0.141663185503E+02   -0.11676E-03   -0.13112E-03    32   0.408E-01    0.323E-02
DAV:   3    -0.141663290175E+02   -0.10467E-04   -0.10919E-05    16   0.330E-02
  477 T=  1987. E= -.13652684E+02 F= -.14166329E+02 E0= -.14166329E+02  EK= 0.51365E+00 SP= 0.00E+00 SK= 0.00E+00
       N       E                     dE             d eps       ncg     rms          rms(c)
DAV:   1    -0.141550837210E+02    0.11235E-01   -0.53003E-02    32   0.215E+00    0.411E-02
DAV:   2    -0.141551279783E+02   -0.44257E-04   -0.80225E-04    32   0.315E-01
  478 T=  1944. E= -.13652526E+02 F= -.14155128E+02 E0= -.14155128E+02  EK= 0.50260E+00 SP= 0.00E+00 SK= 0.00E+00
       N       E                     dE             d eps       ncg     rms          rms(c)
DAV:   1    -0.141050603238E+02    0.50023E-01   -0.50291E-02    24   0.200E+00    0.461E-02
DAV:   2    -0.141051266299E+02   -0.66306E-04   -0.90968E-04    16   0.342E-01
  479 T=  1756. E= -.13651212E+02 F= -.14105127E+02 E0= -.14105127E+02  EK= 0.45391E+00 SP= 0.00E+00 SK= 0.00E+00
       N       E                     dE             d eps       ncg     rms          rms(c)
DAV:   1    -0.140340696419E+02    0.70991E-01   -0.41635E-02    16   0.189E+00    0.495E-02
DAV:   2    -0.140342048268E+02   -0.13518E-03   -0.15255E-03    32   0.401E-01    0.356E-02
DAV:   3    -0.140342073594E+02   -0.25326E-05   -0.18195E-05    16   0.330E-02
  480 T=  1488. E= -.13649563E+02 F= -.14034207E+02 E0= -.14034207E+02  EK= 0.38464E+00 SP= 0.00E+00 SK= 0.00E+00
       N       E                     dE             d eps       ncg     rms          rms(c)
DAV:   1    -0.139665975914E+02    0.67607E-01   -0.30125E-02    16   0.170E+00    0.555E-02
DAV:   2    -0.139667054677E+02   -0.10788E-03   -0.14622E-03    32   0.376E-01    0.327E-02
DAV:   3    -0.139667018669E+02    0.36008E-05   -0.28375E-05    16   0.385E-02
  481 T=  1232. E= -.13648171E+02 F= -.13966702E+02 E0= -.13966702E+02  EK= 0.31853E+00 SP= 0.00E+00 SK= 0.00E+00
       N       E                     dE             d eps       ncg     rms          rms(c)
DAV:   1    -0.139235890193E+02    0.43116E-01   -0.20518E-02    16   0.143E+00    0.232E-02
DAV:   2    -0.139236983694E+02   -0.10935E-03   -0.98104E-04    32   0.308E-01    0.238E-02
DAV:   3    -0.139236997433E+02   -0.13739E-05   -0.83355E-06    16   0.209E-02
  482 T=  1069. E= -.13647307E+02 F= -.13923700E+02 E0= -.13923700E+02  EK= 0.27639E+00 SP= 0.00E+00 SK= 0.00E+00
       N       E                     dE             d eps       ncg     rms          rms(c)
DAV:   1    -0.139177275284E+02    0.59708E-02   -0.18641E-02    24   0.123E+00    0.188E-02
DAV:   2    -0.139177797768E+02   -0.52248E-04   -0.35397E-04    24   0.199E-01
  483 T=  1047. E= -.13647196E+02 F= -.13917780E+02 E0= -.13917780E+02  EK= 0.27058E+00 SP= 0.00E+00 SK= 0.00E+00
       N       E                     dE             d eps       ncg     rms          rms(c)
DAV:   1    -0.139504687697E+02   -0.32741E-01   -0.27556E-02    16   0.114E+00    0.181E-02
DAV:   2    -0.139505177397E+02   -0.48970E-04   -0.41424E-04    24   0.205E-01
  484 T=  1171. E= -.13647881E+02 F= -.13950518E+02 E0= -.13950518E+02  EK= 0.30264E+00 SP= 0.00E+00 SK= 0.00E+00
       N       E                     dE             d eps       ncg     rms          rms(c)
DAV:   1    -0.140118871381E+02   -0.61418E-01   -0.46170E-02    32   0.120E+00    0.207E-02
DAV:   2    -0.140119362978E+02   -0.49160E-04   -0.36181E-04    16   0.185E-01
  485 T=  1403. E= -.13649212E+02 F= -.14011936E+02 E0= -.14011936E+02  EK= 0.36272E+00 SP= 0.00E+00 SK= 0.00E+00
       N       E                     dE             d eps       ncg     rms          rms(c)
DAV:   1    -0.140816941177E+02   -0.69807E-01   -0.68243E-02    16   0.135E+00    0.204E-02
DAV:   2    -0.140818631367E+02   -0.16902E-03   -0.15095E-03    32   0.375E-01    0.289E-02
DAV:   3    -0.140818642328E+02   -0.10961E-05   -0.10342E-05    16   0.230E-02
  486 T=  1667. E= -.13650831E+02 F= -.14081864E+02 E0= -.14081864E+02  EK= 0.43103E+00 SP= 0.00E+00 SK= 0.00E+00
       N       E                     dE             d eps       ncg     rms          rms(c)
DAV:   1    -0.141342299309E+02   -0.52367E-01   -0.87404E-02    16   0.149E+00    0.172E-02
DAV:   2    -0.141344266874E+02   -0.19676E-03   -0.17810E-03    32   0.399E-01    0.350E-02
DAV:   3    -0.141344236974E+02    0.29900E-05   -0.10962E-06     8   0.104E-02
  487 T=  1865. E= -.13652178E+02 F= -.14134424E+02 E0= -.14134424E+02  EK= 0.48225E+00 SP= 0.00E+00 SK= 0.00E+00
       N       E                     dE             d eps       ncg     rms          rms(c)
DAV:   1    -0.141472691376E+02   -0.12842E-01   -0.92213E-02    32   0.157E+00    0.307E-02
DAV:   2    -0.141473462129E+02   -0.77075E-04   -0.72850E-04    16   0.275E-01
  488 T=  1914. E= -.13652498E+02 F= -.14147346E+02 E0= -.14147346E+02  EK= 0.49485E+00 SP= 0.00E+00 SK= 0.00E+00
       N       E                     dE             d eps       ncg     rms          rms(c)
DAV:   1    -0.141159403092E+02    0.31329E-01   -0.82006E-02    32   0.160E+00    0.512E-02
DAV:   2    -0.141160182263E+02   -0.77917E-04   -0.91987E-04    16   0.318E-01
  489 T=  1798. E= -.13651179E+02 F= -.14116018E+02 E0= -.14116018E+02  EK= 0.46484E+00 SP= 0.00E+00 SK= 0.00E+00
       N       E                     dE             d eps       ncg     rms          rms(c)
DAV:   1    -0.140621534681E+02    0.53787E-01   -0.62034E-02    32   0.162E+00    0.683E-02
DAV:   2    -0.140621733651E+02   -0.19897E-04   -0.69574E-04    16   0.262E-01
  490 T=  1599. E= -.13648833E+02 F= -.14062173E+02 E0= -.14062173E+02  EK= 0.41334E+00 SP= 0.00E+00 SK= 0.00E+00
       N       E                     dE             d eps       ncg     rms          rms(c)
DAV:   1    -0.140234162643E+02    0.38737E-01   -0.37727E-02    24   0.158E+00    0.715E-02
DAV:   2    -0.140235060077E+02   -0.89743E-04   -0.12373E-03    16   0.350E-01    0.360E-02
DAV:   3    -0.140235379574E+02   -0.31950E-04   -0.16716E-05    24   0.419E-02
  491 T=  1457. E= -.13646968E+02 F= -.14023538E+02 E0= -.14023538E+02  EK= 0.37657E+00 SP= 0.00E+00 SK= 0.00E+00
       N       E                     dE             d eps       ncg     rms          rms(c)
DAV:   1    -0.140288601925E+02   -0.53542E-02   -0.22913E-02    16   0.159E+00    0.676E-02
DAV:   2    -0.140290024751E+02   -0.14228E-03   -0.14763E-03    32   0.413E-01    0.239E-02
DAV:   3    -0.140290450710E+02   -0.42596E-04   -0.13351E-05    24   0.343E-02
  492 T=  1478. E= -.13646886E+02 F= -.14029045E+02 E0= -.14029045E+02  EK= 0.38216E+00 SP= 0.00E+00 SK= 0.00E+00
       N       E                     dE             d eps       ncg     rms          rms(c)
DAV:   1    -0.140793154794E+02   -0.50313E-01   -0.23896E-02    24   0.164E+00    0.451E-02
DAV:   2    -0.140793947306E+02   -0.79251E-04   -0.75838E-04    32   0.316E-01
  493 T=  1666. E= -.13648669E+02 F= -.14079395E+02 E0= -.14079395E+02  EK= 0.43073E+00 SP= 0.00E+00 SK= 0.00E+00
       N       E                     dE             d eps       ncg     rms          rms(c)
DAV:   1    -0.141469253877E+02   -0.67610E-01   -0.35113E-02    16   0.172E+00    0.553E-02
DAV:   2    -0.141470538800E+02   -0.12849E-03   -0.97760E-04    32   0.365E-01    0.376E-02
DAV:   3    -0.141470871013E+02   -0.33221E-04   -0.22242E-05    16   0.473E-02
  494 T=  1918. E= -.13651156E+02 F= -.14147087E+02 E0= -.14147087E+02  EK= 0.49593E+00 SP= 0.00E+00 SK= 0.00E+00
       N       E                     dE             d eps       ncg     rms          rms(c)
DAV:   1    -0.141938299506E+02   -0.46776E-01   -0.50962E-02    32   0.190E+00    0.417E-02
DAV:   2    -0.141939075150E+02   -0.77564E-04   -0.93370E-04    16   0.333E-01
  495 T=  2093. E= -.13652731E+02 F= -.14193908E+02 E0= -.14193908E+02  EK= 0.54118E+00 SP= 0.00E+00 SK= 0.00E+00
       N       E                     dE             d eps       ncg     rms          rms(c)
DAV:   1    -0.141941985366E+02   -0.36859E-03   -0.59042E-02    16   0.202E+00    0.534E-02
DAV:   2    -0.141943409863E+02   -0.14245E-03   -0.14421E-03    24   0.420E-01    0.364E-02
DAV:   3    -0.141943538504E+02   -0.12864E-04   -0.15557E-05    32   0.357E-02
  496 T=  2096. E= -.13652609E+02 F= -.14194354E+02 E0= -.14194354E+02  EK= 0.54174E+00 SP= 0.00E+00 SK= 0.00E+00
       N       E                     dE             d eps       ncg     rms          rms(c)
DAV:   1    -0.141477343612E+02    0.46607E-01   -0.55095E-02    16   0.202E+00    0.527E-02
DAV:   2    -0.141478229886E+02   -0.88627E-04   -0.15328E-03    16   0.432E-01    0.133E-02
DAV:   3    -0.141478295639E+02   -0.65753E-05   -0.12741E-05    32   0.370E-02
  497 T=  1921. E= -.13651276E+02 F= -.14147830E+02 E0= -.14147830E+02  EK= 0.49655E+00 SP= 0.00E+00 SK= 0.00E+00
       N       E                     dE             d eps       ncg     rms          rms(c)
DAV:   1    -0.140731716964E+02    0.74651E-01   -0.45444E-02    24   0.188E+00    0.335E-02
DAV:   2    -0.140732957593E+02   -0.12406E-03   -0.12846E-03    24   0.375E-01    0.237E-02
DAV:   3    -0.140733005925E+02   -0.48332E-05   -0.90554E-06    24   0.233E-02
  498 T=  1639. E= -.13649473E+02 F= -.14073301E+02 E0= -.14073301E+02  EK= 0.42383E+00 SP= 0.00E+00 SK= 0.00E+00
       N       E                     dE             d eps       ncg     rms          rms(c)
DAV:   1    -0.139967321197E+02    0.76564E-01   -0.33494E-02    16   0.176E+00    0.230E-02
DAV:   2    -0.139969137932E+02   -0.18167E-03   -0.17445E-03    24   0.411E-01    0.310E-02
DAV:   3    -0.139969104190E+02    0.33741E-05   -0.10633E-05    24   0.250E-02
  499 T=  1350. E= -.13647934E+02 F= -.13996910E+02 E0= -.13996910E+02  EK= 0.34898E+00 SP= 0.00E+00 SK= 0.00E+00
       N       E                     dE             d eps       ncg     rms          rms(c)
DAV:   1    -0.139411640375E+02    0.55750E-01   -0.20952E-02    24   0.146E+00    0.351E-02
DAV:   2    -0.139412391612E+02   -0.75124E-04   -0.68160E-04    16   0.267E-01
  500 T=  1138. E= -.13646967E+02 F= -.13941239E+02 E0= -.13941239E+02  EK= 0.29427E+00 SP= 0.00E+00 SK= 0.00E+00
       N       E                     dE             d eps       ncg     rms          rms(c)
DAV:   1    -0.139201907026E+02    0.20973E-01   -0.16878E-02    16   0.123E+00    0.225E-02
DAV:   2    -0.139202705277E+02   -0.79825E-04   -0.73774E-04    24   0.285E-01
  501 T=  1058. E= -.13646724E+02 F= -.13920271E+02 E0= -.13920271E+02  EK= 0.27355E+00 SP= 0.00E+00 SK= 0.00E+00
       N       E                     dE             d eps       ncg     rms          rms(c)
DAV:   1    -0.139374006931E+02   -0.17210E-01   -0.23671E-02    16   0.110E+00    0.269E-02
DAV:   2    -0.139374843845E+02   -0.83691E-04   -0.67257E-04    24   0.254E-01
  502 T=  1123. E= -.13647131E+02 F= -.13937484E+02 E0= -.13937484E+02  EK= 0.29035E+00 SP= 0.00E+00 SK= 0.00E+00
       N       E                     dE             d eps       ncg     rms          rms(c)
DAV:   1    -0.139858366570E+02   -0.48436E-01   -0.42191E-02    16   0.117E+00    0.198E-02
DAV:   2    -0.139859318822E+02   -0.95225E-04   -0.66854E-04    24   0.270E-01
  503 T=  1307. E= -.13648155E+02 F= -.13985932E+02 E0= -.13985932E+02  EK= 0.33778E+00 SP= 0.00E+00 SK= 0.00E+00
       N       E                     dE             d eps       ncg     rms          rms(c)
DAV:   1    -0.140491161395E+02   -0.63279E-01   -0.65677E-02    16   0.135E+00    0.261E-02
DAV:   2    -0.140492639347E+02   -0.14780E-03   -0.11847E-03    24   0.356E-01    0.370E-02
DAV:   3    -0.140492595442E+02    0.43905E-05   -0.24800E-06    24   0.136E-02
  504 T=  1546. E= -.13649493E+02 F= -.14049260E+02 E0= -.14049260E+02  EK= 0.39977E+00 SP= 0.00E+00 SK= 0.00E+00
       N       E                     dE             d eps       ncg     rms          rms(c)
DAV:   1    -0.141050283220E+02   -0.55764E-01   -0.84546E-02    16   0.150E+00    0.522E-02
DAV:   2    -0.141051990541E+02   -0.17073E-03   -0.16724E-03    24   0.414E-01    0.253E-02
DAV:   3    -0.141052118836E+02   -0.12830E-04   -0.25416E-05    24   0.368E-02
  505 T=  1758. E= -.13650813E+02 F= -.14105212E+02 E0= -.14105212E+02  EK= 0.45440E+00 SP= 0.00E+00 SK= 0.00E+00
       N       E                     dE             d eps       ncg     rms          rms(c)
DAV:   1    -0.141321697570E+02   -0.26971E-01   -0.10107E-01    16   0.164E+00    0.422E-02
DAV:   2    -0.141324957878E+02   -0.32603E-03   -0.34133E-03    24   0.525E-01    0.498E-02
DAV:   3    -0.141324808439E+02    0.14944E-04   -0.49463E-05    16   0.505E-02
  506 T=  1861. E= -.13651411E+02 F= -.14132481E+02 E0= -.14132481E+02  EK= 0.48107E+00 SP= 0.00E+00 SK= 0.00E+00
       N       E                     dE             d eps       ncg     rms          rms(c)
DAV:   1    -0.141206206396E+02    0.11875E-01   -0.10005E-01    16   0.160E+00    0.456E-02
DAV:   2    -0.141207627472E+02   -0.14211E-03   -0.13098E-03    24   0.378E-01    0.420E-02
DAV:   3    -0.141207626636E+02    0.83591E-07   -0.97419E-06    16   0.282E-02
  507 T=  1818. E= -.13650874E+02 F= -.14120763E+02 E0= -.14120763E+02  EK= 0.46989E+00 SP= 0.00E+00 SK= 0.00E+00
       N       E                     dE             d eps       ncg     rms          rms(c)
DAV:   1    -0.140780854354E+02    0.42677E-01   -0.80476E-02    16   0.151E+00    0.955E-02
DAV:   2    -0.140781513554E+02   -0.65920E-04   -0.22390E-03    24   0.446E-01    0.295E-02
DAV:   3    -0.140781790363E+02   -0.27681E-04   -0.22157E-05    24   0.389E-02
  508 T=  1659. E= -.13649314E+02 F= -.14078179E+02 E0= -.14078179E+02  EK= 0.42887E+00 SP= 0.00E+00 SK= 0.00E+00
       N       E                     dE             d eps       ncg     rms          rms(c)
DAV:   1    -0.140299515638E+02    0.48200E-01   -0.63206E-02    16   0.159E+00    0.445E-02
DAV:   2    -0.140300690618E+02   -0.11750E-03   -0.13539E-03    24   0.377E-01    0.198E-02
DAV:   3    -0.140300840011E+02   -0.14939E-04   -0.49303E-06    16   0.226E-02
  509 T=  1480. E= -.13647544E+02 F= -.14030084E+02 E0= -.14030084E+02  EK= 0.38254E+00 SP= 0.00E+00 SK= 0.00E+00
       N       E                     dE             d eps       ncg     rms          rms(c)
DAV:   1    -0.140059029772E+02    0.24166E-01   -0.41290E-02    16   0.164E+00    0.485E-02
DAV:   2    -0.140060202441E+02   -0.11727E-03   -0.12900E-03    24   0.387E-01    0.249E-02
DAV:   3    -0.140060280039E+02   -0.77598E-05   -0.12234E-05    32   0.333E-02
  510 T=  1391. E= -.13646456E+02 F= -.14006028E+02 E0= -.14006028E+02  EK= 0.35957E+00 SP= 0.00E+00 SK= 0.00E+00
       N       E                     dE             d eps       ncg     rms          rms(c)
DAV:   1    -0.140242659402E+02   -0.18246E-01   -0.30331E-02    16   0.182E+00    0.567E-02
DAV:   2    -0.140243916307E+02   -0.12569E-03   -0.12454E-03    24   0.411E-01    0.330E-02
DAV:   3    -0.140244225715E+02   -0.30941E-04   -0.18894E-05    16   0.452E-02
  511 T=  1460. E= -.13646862E+02 F= -.14024423E+02 E0= -.14024423E+02  EK= 0.37756E+00 SP= 0.00E+00 SK= 0.00E+00
       N       E                     dE             d eps       ncg     rms          rms(c)
DAV:   1    -0.140796303913E+02   -0.55239E-01   -0.31055E-02    16   0.196E+00    0.393E-02
DAV:   2    -0.140797664096E+02   -0.13602E-03   -0.13884E-03    32   0.418E-01    0.290E-02
DAV:   3    -0.140797667552E+02   -0.34562E-06   -0.89982E-06    16   0.272E-02
  512 T=  1667. E= -.13648938E+02 F= -.14079767E+02 E0= -.14079767E+02  EK= 0.43083E+00 SP= 0.00E+00 SK= 0.00E+00
       N       E                     dE             d eps       ncg     rms          rms(c)
DAV:   1    -0.141412063587E+02   -0.61440E-01   -0.40624E-02    16   0.209E+00    0.413E-02
DAV:   2    -0.141413033683E+02   -0.97010E-04   -0.12052E-03    32   0.376E-01    0.215E-02
DAV:   3    -0.141413075589E+02   -0.41906E-05   -0.73985E-06    16   0.230E-02
  513 T=  1896. E= -.13651270E+02 F= -.14141308E+02 E0= -.14141308E+02  EK= 0.49004E+00 SP= 0.00E+00 SK= 0.00E+00
       N       E                     dE             d eps       ncg     rms          rms(c)
DAV:   1    -0.141726023565E+02   -0.31299E-01   -0.50892E-02    16   0.223E+00    0.421E-02
DAV:   2    -0.141726902170E+02   -0.87861E-04   -0.12265E-03    24   0.393E-01    0.163E-02
DAV:   3    -0.141726935836E+02   -0.33666E-05   -0.62155E-06    24   0.222E-02
  514 T=  2013. E= -.13652241E+02 F= -.14172694E+02 E0= -.14172694E+02  EK= 0.52045E+00 SP= 0.00E+00 SK= 0.00E+00
       N       E                     dE             d eps       ncg     rms          rms(c)
DAV:   1    -0.141565436418E+02    0.16147E-01   -0.52542E-02    24   0.225E+00    0.452E-02
DAV:   2    -0.141565888004E+02   -0.45159E-04   -0.96578E-04    24   0.366E-01
  515 T=  1954. E= -.13651491E+02 F= -.14156589E+02 E0= -.14156589E+02  EK= 0.50510E+00 SP= 0.00E+00 SK= 0.00E+00
       N       E                     dE             d eps       ncg     rms          rms(c)
DAV:   1    -0.141014901505E+02    0.55053E-01   -0.44105E-02    16   0.210E+00    0.522E-02
DAV:   2    -0.141015817523E+02   -0.91602E-04   -0.12080E-03    24   0.388E-01    0.341E-02
DAV:   3    -0.141015845686E+02   -0.28163E-05   -0.12490E-05    24   0.303E-02
  516 T=  1748. E= -.13649813E+02 F= -.14101585E+02 E0= -.14101585E+02  EK= 0.45177E+00 SP= 0.00E+00 SK= 0.00E+00
       N       E                     dE             d eps       ncg     rms          rms(c)
DAV:   1    -0.140315600799E+02    0.70022E-01   -0.33634E-02    16   0.200E+00    0.487E-02
DAV:   2    -0.140316893919E+02   -0.12931E-03   -0.16329E-03    24   0.412E-01    0.297E-02
DAV:   3    -0.140316863141E+02    0.30777E-05   -0.20812E-05     8   0.376E-02
  517 T=  1484. E= -.13648095E+02 F= -.14031686E+02 E0= -.14031686E+02  EK= 0.38359E+00 SP= 0.00E+00 SK= 0.00E+00
       N       E                     dE             d eps       ncg     rms          rms(c)
DAV:   1    -0.139724492490E+02    0.59240E-01   -0.21775E-02    16   0.176E+00    0.257E-02
DAV:   2    -0.139725597304E+02   -0.11048E-03   -0.10754E-03    32   0.336E-01    0.227E-02
DAV:   3    -0.139725614929E+02   -0.17625E-05   -0.85452E-06    16   0.208E-02
  518 T=  1260. E= -.13646800E+02 F= -.13972561E+02 E0= -.13972561E+02  EK= 0.32576E+00 SP= 0.00E+00 SK= 0.00E+00
       N       E                     dE             d eps       ncg     rms          rms(c)
DAV:   1    -0.139430568608E+02    0.29503E-01   -0.15737E-02    16   0.152E+00    0.169E-02
DAV:   2    -0.139431473286E+02   -0.90468E-04   -0.77713E-04    24   0.286E-01
  519 T=  1148. E= -.13646253E+02 F= -.13943147E+02 E0= -.13943147E+02  EK= 0.29689E+00 SP= 0.00E+00 SK= 0.00E+00
       N       E                     dE             d eps       ncg     rms          rms(c)
DAV:   1    -0.139516683486E+02   -0.86115E-02   -0.19051E-02    16   0.133E+00    0.358E-02
DAV:   2    -0.139517119637E+02   -0.43615E-04   -0.38047E-04    32   0.211E-01
  520 T=  1181. E= -.13646457E+02 F= -.13951712E+02 E0= -.13951712E+02  EK= 0.30525E+00 SP= 0.00E+00 SK= 0.00E+00
       N       E                     dE             d eps       ncg     rms          rms(c)
DAV:   1    -0.139953302569E+02   -0.43662E-01   -0.35568E-02    16   0.130E+00    0.247E-02
DAV:   2    -0.139953674763E+02   -0.37219E-04   -0.45191E-04    16   0.211E-01
  521 T=  1346. E= -.13647376E+02 F= -.13995367E+02 E0= -.13995367E+02  EK= 0.34799E+00 SP= 0.00E+00 SK= 0.00E+00
       N       E                     dE             d eps       ncg     rms          rms(c)
DAV:   1    -0.140601643056E+02   -0.64834E-01   -0.56273E-02    16   0.138E+00    0.244E-02
DAV:   2    -0.140602636731E+02   -0.99367E-04   -0.95273E-04    16   0.304E-01
  522 T=  1592. E= -.13648712E+02 F= -.14060264E+02 E0= -.14060264E+02  EK= 0.41155E+00 SP= 0.00E+00 SK= 0.00E+00
       N       E                     dE             d eps       ncg     rms          rms(c)
DAV:   1    -0.141239709386E+02   -0.63807E-01   -0.83653E-02    24   0.153E+00    0.361E-02
DAV:   2    -0.141241103080E+02   -0.13937E-03   -0.10299E-03    16   0.322E-01    0.321E-02
DAV:   3    -0.141241458761E+02   -0.35568E-04   -0.24472E-05    24   0.416E-02
  523 T=  1833. E= -.13650305E+02 F= -.14124146E+02 E0= -.14124146E+02  EK= 0.47384E+00 SP= 0.00E+00 SK= 0.00E+00
       N       E                     dE             d eps       ncg     rms          rms(c)
DAV:   1    -0.141617773806E+02   -0.37667E-01   -0.10244E-01    24   0.167E+00    0.260E-02
DAV:   2    -0.141619323489E+02   -0.15497E-03   -0.14825E-03    32   0.373E-01    0.258E-02
DAV:   3    -0.141619308426E+02    0.15063E-05   -0.82936E-06    16   0.220E-02
  524 T=  1974. E= -.13651584E+02 F= -.14161931E+02 E0= -.14161931E+02  EK= 0.51035E+00 SP= 0.00E+00 SK= 0.00E+00
       N       E                     dE             d eps       ncg     rms          rms(c)
DAV:   1    -0.141551762138E+02    0.67561E-02   -0.10433E-01    16   0.168E+00    0.439E-02
DAV:   2    -0.141553309764E+02   -0.15476E-03   -0.16686E-03    32   0.414E-01    0.276E-02
DAV:   3    -0.141553362192E+02   -0.52428E-05   -0.80023E-06    16   0.248E-02
  525 T=  1948. E= -.13651676E+02 F= -.14155336E+02 E0= -.14155336E+02  EK= 0.50366E+00 SP= 0.00E+00 SK= 0.00E+00
       N       E                     dE             d eps       ncg     rms          rms(c)
DAV:   1    -0.141042825577E+02    0.51048E-01   -0.92057E-02    16   0.164E+00    0.480E-02
DAV:   2    -0.141044138567E+02   -0.13130E-03   -0.16570E-03    24   0.403E-01    0.263E-02
DAV:   3    -0.141044182633E+02   -0.44065E-05   -0.14305E-05    24   0.307E-02
  526 T=  1757. E= -.13650260E+02 F= -.14104418E+02 E0= -.14104418E+02  EK= 0.45416E+00 SP= 0.00E+00 SK= 0.00E+00
       N       E                     dE             d eps       ncg     rms          rms(c)
DAV:   1    -0.140332697109E+02    0.71144E-01   -0.68591E-02    24   0.169E+00    0.587E-02
DAV:   2    -0.140333263431E+02   -0.56632E-04   -0.13281E-03    16   0.351E-01    0.197E-02
DAV:   3    -0.140333328937E+02   -0.65506E-05   -0.14403E-05    32   0.349E-02
  527 T=  1491. E= -.13647760E+02 F= -.14033333E+02 E0= -.14033333E+02  EK= 0.38557E+00 SP= 0.00E+00 SK= 0.00E+00
       N       E                     dE             d eps       ncg     rms          rms(c)
DAV:   1    -0.139823392710E+02    0.50987E-01   -0.45410E-02    16   0.175E+00    0.594E-02
DAV:   2    -0.139824741212E+02   -0.13485E-03   -0.15267E-03    24   0.386E-01    0.300E-02
DAV:   3    -0.139824902237E+02   -0.16103E-04   -0.27723E-05    16   0.497E-02
  528 T=  1304. E= -.13645473E+02 F= -.13982490E+02 E0= -.13982490E+02  EK= 0.33702E+00 SP= 0.00E+00 SK= 0.00E+00
       N       E                     dE             d eps       ncg     rms          rms(c)
DAV:   1    -0.139870123914E+02   -0.45383E-02   -0.31166E-02    32   0.170E+00    0.613E-02
DAV:   2    -0.139870552391E+02   -0.42848E-04   -0.64322E-04    32   0.280E-01
  529 T=  1322. E= -.13645292E+02 F= -.13987055E+02 E0= -.13987055E+02  EK= 0.34176E+00 SP= 0.00E+00 SK= 0.00E+00
       N       E                     dE             d eps       ncg     rms          rms(c)
DAV:   1    -0.140496696742E+02   -0.62657E-01   -0.30314E-02    16   0.166E+00    0.591E-02
DAV:   2    -0.140497380193E+02   -0.68345E-04   -0.84226E-04    32   0.336E-01
  530 T=  1555. E= -.13647846E+02 F= -.14049738E+02 E0= -.14049738E+02  EK= 0.40189E+00 SP= 0.00E+00 SK= 0.00E+00
       N       E                     dE             d eps       ncg     rms          rms(c)
DAV:   1    -0.141321337082E+02   -0.82464E-01   -0.43295E-02    16   0.182E+00    0.593E-02
DAV:   2    -0.141322407016E+02   -0.10699E-03   -0.14130E-03    16   0.417E-01    0.388E-02
DAV:   3    -0.141322459451E+02   -0.52436E-05   -0.12223E-05    24   0.382E-02
  531 T=  1861. E= -.13651091E+02 F= -.14132246E+02 E0= -.14132246E+02  EK= 0.48115E+00 SP= 0.00E+00 SK= 0.00E+00
       N       E                     dE             d eps       ncg     rms          rms(c)
DAV:   1    -0.141840215680E+02   -0.51781E-01   -0.59328E-02    24   0.204E+00    0.560E-02
DAV:   2    -0.141841173442E+02   -0.95776E-04   -0.13979E-03    16   0.419E-01    0.184E-02
DAV:   3    -0.141841209145E+02   -0.35703E-05   -0.11400E-05    32   0.339E-02
  532 T=  2056. E= -.13652564E+02 F= -.14184121E+02 E0= -.14184121E+02  EK= 0.53156E+00 SP= 0.00E+00 SK= 0.00E+00
       N       E                     dE             d eps       ncg     rms          rms(c)
DAV:   1    -0.141796479204E+02    0.44694E-02   -0.63980E-02    16   0.218E+00    0.529E-02
DAV:   2    -0.141797682532E+02   -0.12033E-03   -0.17364E-03    32   0.466E-01    0.249E-02
DAV:   3    -0.141797681801E+02    0.73119E-07   -0.95411E-06    16   0.264E-02
  533 T=  2042. E= -.13651807E+02 F= -.14179768E+02 E0= -.14179768E+02  EK= 0.52796E+00 SP= 0.00E+00 SK= 0.00E+00
       N       E                     dE             d eps       ncg     rms          rms(c)
DAV:   1    -0.141270360937E+02    0.52732E-01   -0.54933E-02    24   0.205E+00    0.437E-02
DAV:   2    -0.141271038625E+02   -0.67769E-04   -0.11084E-03    16   0.359E-01    0.175E-02
DAV:   3    -0.141271055456E+02   -0.16831E-05   -0.93063E-06    32   0.307E-02
  534 T=  1846. E= -.13649930E+02 F= -.14127106E+02 E0= -.14127106E+02  EK= 0.47718E+00 SP= 0.00E+00 SK= 0.00E+00
       N       E                     dE             d eps       ncg     rms          rms(c)
DAV:   1    -0.140527183770E+02    0.74385E-01   -0.42263E-02    32   0.195E+00    0.267E-02
DAV:   2    -0.140528036798E+02   -0.85303E-04   -0.90525E-04    16   0.300E-01
  535 T=  1566. E= -.13647972E+02 F= -.14052804E+02 E0= -.14052804E+02  EK= 0.40483E+00 SP= 0.00E+00 SK= 0.00E+00
       N       E                     dE             d eps       ncg     rms          rms(c)
DAV:   1    -0.139853743613E+02    0.67344E-01   -0.26868E-02    16   0.173E+00    0.555E-02
DAV:   2    -0.139855128815E+02   -0.13852E-03   -0.13692E-03    24   0.362E-01    0.445E-02
DAV:   3    -0.139855313263E+02   -0.18445E-04   -0.64395E-05    32   0.645E-02
  536 T=  1311. E= -.13646605E+02 F= -.13985531E+02 E0= -.13985531E+02  EK= 0.33893E+00 SP= 0.00E+00 SK= 0.00E+00
       N       E                     dE             d eps       ncg     rms          rms(c)
DAV:   1    -0.139461997955E+02    0.39313E-01   -0.13507E-02    16   0.145E+00    0.196E-02
DAV:   2    -0.139462965419E+02   -0.96746E-04   -0.90843E-04    32   0.296E-01
  537 T=  1162. E= -.13645979E+02 F= -.13946297E+02 E0= -.13946297E+02  EK= 0.30032E+00 SP= 0.00E+00 SK= 0.00E+00
       N       E                     dE             d eps       ncg     rms          rms(c)
DAV:   1    -0.139448105090E+02    0.13893E-02   -0.10817E-02    16   0.126E+00    0.332E-02
DAV:   2    -0.139448802571E+02   -0.69748E-04   -0.55382E-04    16   0.226E-01
  538 T=  1156. E= -.13646012E+02 F= -.13944880E+02 E0= -.13944880E+02  EK= 0.29887E+00 SP= 0.00E+00 SK= 0.00E+00
       N       E                     dE             d eps       ncg     rms          rms(c)
DAV:   1    -0.139800017029E+02   -0.35191E-01   -0.20470E-02    16   0.121E+00    0.198E-02
DAV:   2    -0.139800629174E+02   -0.61214E-04   -0.47403E-04    32   0.215E-01
  539 T=  1289. E= -.13646749E+02 F= -.13980063E+02 E0= -.13980063E+02  EK= 0.33331E+00 SP= 0.00E+00 SK= 0.00E+00
       N       E                     dE             d eps       ncg     rms          rms(c)
DAV:   1    -0.140404019793E+02   -0.60400E-01   -0.38361E-02    32   0.133E+00    0.292E-02
DAV:   2    -0.140404531455E+02   -0.51166E-04   -0.34990E-04    16   0.195E-01
  540 T=  1518. E= -.13647996E+02 F= -.14040453E+02 E0= -.14040453E+02  EK= 0.39246E+00 SP= 0.00E+00 SK= 0.00E+00
       N       E                     dE             d eps       ncg     rms          rms(c)
DAV:   1    -0.141069274793E+02   -0.66525E-01   -0.60932E-02    32   0.151E+00    0.203E-02
DAV:   2    -0.141070056387E+02   -0.78159E-04   -0.55764E-04    16   0.236E-01
  541 T=  1770. E= -.13649450E+02 F= -.14107006E+02 E0= -.14107006E+02  EK= 0.45756E+00 SP= 0.00E+00 SK= 0.00E+00
       N       E                     dE             d eps       ncg     rms          rms(c)
DAV:   1    -0.141573083166E+02   -0.50381E-01   -0.81399E-02    32   0.169E+00    0.310E-02
DAV:   2    -0.141574366306E+02   -0.12831E-03   -0.87127E-04    16   0.295E-01    0.289E-02
DAV:   3    -0.141574533146E+02   -0.16684E-04   -0.77047E-06    32   0.258E-02
  542 T=  1960. E= -.13650705E+02 F= -.14157453E+02 E0= -.14157453E+02  EK= 0.50675E+00 SP= 0.00E+00 SK= 0.00E+00
       N       E                     dE             d eps       ncg     rms          rms(c)
DAV:   1    -0.141730573381E+02   -0.15621E-01   -0.89882E-02    16   0.180E+00    0.572E-02
DAV:   2    -0.141732704138E+02   -0.21308E-03   -0.23929E-03    32   0.488E-01    0.254E-02
DAV:   3    -0.141732749874E+02   -0.45736E-05   -0.29147E-05    16   0.379E-02
  543 T=  2019. E= -.13651262E+02 F= -.14173275E+02 E0= -.14173275E+02  EK= 0.52201E+00 SP= 0.00E+00 SK= 0.00E+00
       N       E                     dE             d eps       ncg     rms          rms(c)
DAV:   1    -0.141470980293E+02    0.26172E-01   -0.88726E-02    16   0.181E+00    0.512E-02
DAV:   2    -0.141472970518E+02   -0.19902E-03   -0.22151E-03    32   0.494E-01    0.389E-02
DAV:   3    -0.141472994369E+02   -0.23851E-05   -0.25932E-05    16   0.391E-02
  544 T=  1921. E= -.13650656E+02 F= -.14147299E+02 E0= -.14147299E+02  EK= 0.49664E+00 SP= 0.00E+00 SK= 0.00E+00
       N       E                     dE             d eps       ncg     rms          rms(c)
DAV:   1    -0.140894735179E+02    0.57824E-01   -0.71389E-02    16   0.173E+00    0.663E-02
DAV:   2    -0.140895943461E+02   -0.12083E-03   -0.23217E-03    32   0.477E-01    0.224E-02
DAV:   3    -0.140895964873E+02   -0.21412E-05   -0.15805E-05    32   0.318E-02
  545 T=  1704. E= -.13649077E+02 F= -.14089596E+02 E0= -.14089596E+02  EK= 0.44052E+00 SP= 0.00E+00 SK= 0.00E+00
       N       E                     dE             d eps       ncg     rms          rms(c)
DAV:   1    -0.140268517070E+02    0.62743E-01   -0.55838E-02    16   0.168E+00    0.512E-02
DAV:   2    -0.140269898035E+02   -0.13810E-03   -0.15438E-03    32   0.412E-01    0.224E-02
DAV:   3    -0.140270090841E+02   -0.19281E-04   -0.44678E-06    16   0.218E-02
  546 T=  1471. E= -.13646813E+02 F= -.14027009E+02 E0= -.14027009E+02  EK= 0.38020E+00 SP= 0.00E+00 SK= 0.00E+00
       N       E                     dE             d eps       ncg     rms          rms(c)
DAV:   1    -0.139951924816E+02    0.31797E-01   -0.41633E-02    16   0.162E+00    0.581E-02
DAV:   2    -0.139952524362E+02   -0.59955E-04   -0.81188E-04    24   0.269E-01
  547 T=  1354. E= -.13645325E+02 F= -.13995252E+02 E0= -.13995252E+02  EK= 0.34993E+00 SP= 0.00E+00 SK= 0.00E+00
       N       E                     dE             d eps       ncg     rms          rms(c)
DAV:   1    -0.140165917828E+02   -0.21399E-01   -0.33003E-02    32   0.152E+00    0.769E-02
DAV:   2    -0.140166060685E+02   -0.14286E-04   -0.30612E-04    16   0.200E-01
  548 T=  1432. E= -.13646278E+02 F= -.14016606E+02 E0= -.14016606E+02  EK= 0.37033E+00 SP= 0.00E+00 SK= 0.00E+00
       N       E                     dE             d eps       ncg     rms          rms(c)
DAV:   1    -0.140767575585E+02   -0.60166E-01   -0.39924E-02    24   0.163E+00    0.487E-02
DAV:   2    -0.140768362372E+02   -0.78679E-04   -0.10661E-03    16   0.348E-01    0.204E-02
DAV:   3    -0.140768424622E+02   -0.62250E-05   -0.14201E-05    32   0.377E-02
  549 T=  1654. E= -.13649193E+02 F= -.14076842E+02 E0= -.14076842E+02  EK= 0.42765E+00 SP= 0.00E+00 SK= 0.00E+00
       N       E                     dE             d eps       ncg     rms          rms(c)
DAV:   1    -0.141326007004E+02   -0.55764E-01   -0.56452E-02    32   0.201E+00    0.452E-02
DAV:   2    -0.141326732203E+02   -0.72520E-04   -0.99735E-04    16   0.358E-01
  550 T=  1862. E= -.13651407E+02 F= -.14132673E+02 E0= -.14132673E+02  EK= 0.48127E+00 SP= 0.00E+00 SK= 0.00E+00
       N       E                     dE             d eps       ncg     rms          rms(c)
DAV:   1    -0.141478648390E+02   -0.15264E-01   -0.65890E-02    16   0.218E+00    0.557E-02
DAV:   2    -0.141479789176E+02   -0.11408E-03   -0.12713E-03    32   0.430E-01    0.330E-02
DAV:   3    -0.141479919918E+02   -0.13074E-04   -0.11369E-05    32   0.285E-02
  551 T=  1920. E= -.13651606E+02 F= -.14147992E+02 E0= -.14147992E+02  EK= 0.49639E+00 SP= 0.00E+00 SK= 0.00E+00
       N       E                     dE             d eps       ncg     rms          rms(c)
DAV:   1    -0.141160543554E+02    0.31925E-01   -0.63057E-02    16   0.220E+00    0.661E-02
DAV:   2    -0.141161195439E+02   -0.65188E-04   -0.16079E-03    16   0.464E-01    0.247E-02
DAV:   3    -0.141161238435E+02   -0.42997E-05   -0.16886E-05    32   0.424E-02
  552 T=  1802. E= -.13650291E+02 F= -.14116124E+02 E0= -.14116124E+02  EK= 0.46583E+00 SP= 0.00E+00 SK= 0.00E+00
       N       E                     dE             d eps       ncg     rms          rms(c)
DAV:   1    -0.140547260995E+02    0.61393E-01   -0.51465E-02    24   0.206E+00    0.413E-02
DAV:   2    -0.140548771132E+02   -0.15101E-03   -0.17318E-03    32   0.425E-01    0.253E-02
DAV:   3    -0.140548814072E+02   -0.42940E-05   -0.15778E-05    16   0.291E-02
  553 T=  1572. E= -.13648452E+02 F= -.14054881E+02 E0= -.14054881E+02  EK= 0.40643E+00 SP= 0.00E+00 SK= 0.00E+00
       N       E                     dE             d eps       ncg     rms          rms(c)
DAV:   1    -0.139906082202E+02    0.64269E-01   -0.38864E-02    16   0.188E+00    0.216E-02
DAV:   2    -0.139908144253E+02   -0.20621E-03   -0.20811E-03    32   0.447E-01    0.328E-02
DAV:   3    -0.139908087203E+02    0.57050E-05   -0.11507E-05    16   0.239E-02
  554 T=  1330. E= -.13646908E+02 F= -.13990809E+02 E0= -.13990809E+02  EK= 0.34390E+00 SP= 0.00E+00 SK= 0.00E+00
       N       E                     dE             d eps       ncg     rms          rms(c)
DAV:   1    -0.139467399251E+02    0.44075E-01   -0.24348E-02    24   0.161E+00    0.452E-02
DAV:   2    -0.139468287373E+02   -0.88812E-04   -0.91320E-04    16   0.315E-01
  555 T=  1164. E= -.13645916E+02 F= -.13946829E+02 E0= -.13946829E+02  EK= 0.30091E+00 SP= 0.00E+00 SK= 0.00E+00
       N       E                     dE             d eps       ncg     rms          rms(c)
DAV:   1    -0.139369873174E+02    0.97526E-02   -0.15529E-02    16   0.136E+00    0.370E-02
DAV:   2    -0.139370769002E+02   -0.89583E-04   -0.96999E-04    24   0.300E-01
  556 T=  1127. E= -.13645668E+02 F= -.13937077E+02 E0= -.13937077E+02  EK= 0.29141E+00 SP= 0.00E+00 SK= 0.00E+00
       N       E                     dE             d eps       ncg     rms          rms(c)
DAV:   1    -0.139649888962E+02   -0.28002E-01   -0.18154E-02    24   0.123E+00    0.373E-02
DAV:   2    -0.139650377907E+02   -0.48894E-04   -0.55709E-04    32   0.213E-01
  557 T=  1234. E= -.13646092E+02 F= -.13965038E+02 E0= -.13965038E+02  EK= 0.31895E+00 SP= 0.00E+00 SK= 0.00E+00
       N       E                     dE             d eps       ncg     rms          rms(c)
DAV:   1    -0.140239185182E+02   -0.58930E-01   -0.32367E-02    16   0.130E+00    0.168E-02
DAV:   2    -0.140239944213E+02   -0.75903E-04   -0.63565E-04    24   0.267E-01
  558 T=  1458. E= -.13647076E+02 F= -.14023994E+02 E0= -.14023994E+02  EK= 0.37692E+00 SP= 0.00E+00 SK= 0.00E+00
       N       E                     dE             d eps       ncg     rms          rms(c)
DAV:   1    -0.140979638085E+02   -0.74045E-01   -0.53194E-02    16   0.145E+00    0.258E-02
DAV:   2    -0.140981169408E+02   -0.15313E-03   -0.13230E-03    32   0.354E-01    0.373E-02
DAV:   3    -0.140981165274E+02    0.41331E-06   -0.42029E-06    16   0.159E-02
  559 T=  1740. E= -.13648333E+02 F= -.14098117E+02 E0= -.14098117E+02  EK= 0.44978E+00 SP= 0.00E+00 SK= 0.00E+00
       N       E                     dE             d eps       ncg     rms          rms(c)
DAV:   1    -0.141653604827E+02   -0.67244E-01   -0.73661E-02    16   0.161E+00    0.547E-02
DAV:   2    -0.141655262962E+02   -0.16581E-03   -0.19515E-03    32   0.436E-01    0.220E-02
DAV:   3    -0.141655334275E+02   -0.71313E-05   -0.29599E-05    16   0.369E-02
  560 T=  1995. E= -.13649790E+02 F= -.14165533E+02 E0= -.14165533E+02  EK= 0.51574E+00 SP= 0.00E+00 SK= 0.00E+00
       N       E                     dE             d eps       ncg     rms          rms(c)
DAV:   1    -0.142024005380E+02   -0.36874E-01   -0.98305E-02    16   0.179E+00    0.283E-02
DAV:   2    -0.142026195430E+02   -0.21901E-03   -0.20867E-03    24   0.451E-01    0.396E-02
DAV:   3    -0.142026139495E+02    0.55935E-05   -0.68813E-06    16   0.214E-02
  561 T=  2134. E= -.13650823E+02 F= -.14202614E+02 E0= -.14202614E+02  EK= 0.55179E+00 SP= 0.00E+00 SK= 0.00E+00
       N       E                     dE             d eps       ncg     rms          rms(c)
DAV:   1    -0.141920100195E+02    0.10610E-01   -0.10234E-01    32   0.182E+00    0.464E-02
DAV:   2    -0.141920957482E+02   -0.85729E-04   -0.86193E-04    16   0.318E-01
  562 T=  2094. E= -.13650838E+02 F= -.14192096E+02 E0= -.14192096E+02  EK= 0.54126E+00 SP= 0.00E+00 SK= 0.00E+00
       N       E                     dE             d eps       ncg     rms          rms(c)
DAV:   1    -0.141328818687E+02    0.59128E-01   -0.89582E-02    24   0.171E+00    0.608E-02
DAV:   2    -0.141329884388E+02   -0.10657E-03   -0.12852E-03    16   0.363E-01    0.409E-02
DAV:   3    -0.141330023527E+02   -0.13914E-04   -0.12592E-05    16   0.374E-02
  563 T=  1870. E= -.13649549E+02 F= -.14133002E+02 E0= -.14133002E+02  EK= 0.48345E+00 SP= 0.00E+00 SK= 0.00E+00
       N       E                     dE             d eps       ncg     rms          rms(c)
DAV:   1    -0.140487679458E+02    0.84220E-01   -0.72522E-02    32   0.182E+00    0.110E-01
DAV:   2    -0.140488100679E+02   -0.42122E-04   -0.12599E-03    16   0.354E-01    0.551E-02
DAV:   3    -0.140488453537E+02   -0.35286E-04   -0.42354E-05    32   0.683E-02
  564 T=  1556. E= -.13646645E+02 F= -.14048845E+02 E0= -.14048845E+02  EK= 0.40220E+00 SP= 0.00E+00 SK= 0.00E+00
       N       E                     dE             d eps       ncg     rms          rms(c)
DAV:   1    -0.139863511413E+02    0.62459E-01   -0.50641E-02    16   0.183E+00    0.459E-02
DAV:   2    -0.139864850872E+02   -0.13395E-03   -0.11466E-03    24   0.326E-01    0.232E-02
DAV:   3    -0.139865314740E+02   -0.46387E-04   -0.32320E-05    16   0.504E-02
  565 T=  1326. E= -.13643753E+02 F= -.13986531E+02 E0= -.13986531E+02  EK= 0.34278E+00 SP= 0.00E+00 SK= 0.00E+00
       N       E                     dE             d eps       ncg     rms          rms(c)
DAV:   1    -0.139889454603E+02   -0.24604E-02   -0.37310E-02    16   0.161E+00    0.569E-02
DAV:   2    -0.139890324491E+02   -0.86989E-04   -0.79524E-04    32   0.288E-01
  566 T=  1335. E= -.13643930E+02 F= -.13989032E+02 E0= -.13989032E+02  EK= 0.34510E+00 SP= 0.00E+00 SK= 0.00E+00
       N       E                     dE             d eps       ncg     rms          rms(c)
DAV:   1    -0.140533424150E+02   -0.64397E-01   -0.41944E-02    16   0.156E+00    0.640E-02
DAV:   2    -0.140534510925E+02   -0.10868E-03   -0.10595E-03    32   0.355E-01    0.479E-02
DAV:   3    -0.140534768557E+02   -0.25763E-04   -0.20856E-05    32   0.464E-02
  567 T=  1571. E= -.13647453E+02 F= -.14053477E+02 E0= -.14053477E+02  EK= 0.40602E+00 SP= 0.00E+00 SK= 0.00E+00
       N       E                     dE             d eps       ncg     rms          rms(c)
DAV:   1    -0.141278460004E+02   -0.74395E-01   -0.62336E-02    16   0.185E+00    0.653E-02
DAV:   2    -0.141279609419E+02   -0.11494E-03   -0.16248E-03    32   0.441E-01    0.269E-02
DAV:   3    -0.141279747381E+02   -0.13796E-04   -0.20074E-05    16   0.356E-02
  568 T=  1846. E= -.13650867E+02 F= -.14127975E+02 E0= -.14127975E+02  EK= 0.47711E+00 SP= 0.00E+00 SK= 0.00E+00
       N       E                     dE             d eps       ncg     rms          rms(c)
DAV:   1    -0.141596658424E+02   -0.31705E-01   -0.79700E-02    32   0.214E+00    0.505E-02
DAV:   2    -0.141597741363E+02   -0.10829E-03   -0.13344E-03    16   0.418E-01    0.205E-02
DAV:   3    -0.141597945940E+02   -0.20458E-04   -0.10096E-05    24   0.313E-02
  569 T=  1966. E= -.13651583E+02 F= -.14159795E+02 E0= -.14159795E+02  EK= 0.50821E+00 SP= 0.00E+00 SK= 0.00E+00
       N       E                     dE             d eps       ncg     rms          rms(c)
DAV:   1    -0.141331560114E+02    0.26618E-01   -0.82207E-02    16   0.216E+00    0.542E-02
DAV:   2    -0.141332509425E+02   -0.94931E-04   -0.15899E-03    32   0.460E-01    0.182E-02
DAV:   3    -0.141332535325E+02   -0.25900E-05   -0.62104E-06    16   0.216E-02
  570 T=  1869. E= -.13650204E+02 F= -.14133254E+02 E0= -.14133254E+02  EK= 0.48305E+00 SP= 0.00E+00 SK= 0.00E+00
       N       E                     dE             d eps       ncg     rms          rms(c)
DAV:   1    -0.140658753647E+02    0.67376E-01   -0.70947E-02    16   0.199E+00    0.415E-02
DAV:   2    -0.140660365646E+02   -0.16120E-03   -0.18385E-03    24   0.447E-01    0.245E-02
DAV:   3    -0.140660397490E+02   -0.31844E-05   -0.11715E-05    24   0.275E-02
  571 T=  1617. E= -.13648097E+02 F= -.14066040E+02 E0= -.14066040E+02  EK= 0.41794E+00 SP= 0.00E+00 SK= 0.00E+00
       N       E                     dE             d eps       ncg     rms          rms(c)
DAV:   1    -0.139885162932E+02    0.77520E-01   -0.56189E-02    24   0.186E+00    0.244E-02
DAV:   2    -0.139886955305E+02   -0.17924E-03   -0.17590E-03    24   0.403E-01    0.260E-02
DAV:   3    -0.139886946682E+02    0.86234E-06   -0.75121E-06    24   0.204E-02
  572 T=  1325. E= -.13646261E+02 F= -.13988695E+02 E0= -.13988695E+02  EK= 0.34243E+00 SP= 0.00E+00 SK= 0.00E+00
       N       E                     dE             d eps       ncg     rms          rms(c)
DAV:   1    -0.139283637419E+02    0.60332E-01   -0.36229E-02    16   0.161E+00    0.217E-02
DAV:   2    -0.139285234613E+02   -0.15972E-03   -0.15519E-03    24   0.370E-01    0.306E-02
DAV:   3    -0.139285204842E+02    0.29771E-05   -0.13807E-06    16   0.107E-02
  573 T=  1096. E= -.13645068E+02 F= -.13928520E+02 E0= -.13928520E+02  EK= 0.28345E+00 SP= 0.00E+00 SK= 0.00E+00
       N       E                     dE             d eps       ncg     rms          rms(c)
DAV:   1    -0.139027372304E+02    0.25786E-01   -0.21873E-02    16   0.135E+00    0.168E-02
DAV:   2    -0.139028342756E+02   -0.97045E-04   -0.79476E-04    24   0.253E-01
  574 T=   999. E= -.13644610E+02 F= -.13902834E+02 E0= -.13902834E+02  EK= 0.25822E+00 SP= 0.00E+00 SK= 0.00E+00
       N       E                     dE             d eps       ncg     rms          rms(c)
DAV:   1    -0.139175815461E+02   -0.14844E-01   -0.19938E-02    16   0.127E+00    0.495E-02
DAV:   2    -0.139176520572E+02   -0.70511E-04   -0.49992E-04    24   0.227E-01
  575 T=  1055. E= -.13644840E+02 F= -.13917652E+02 E0= -.13917652E+02  EK= 0.27281E+00 SP= 0.00E+00 SK= 0.00E+00
       N       E                     dE             d eps       ncg     rms          rms(c)
DAV:   1    -0.139684306961E+02   -0.50849E-01   -0.29554E-02    16   0.132E+00    0.174E-02
DAV:   2    -0.139684900632E+02   -0.59367E-04   -0.48681E-04    24   0.237E-01
  576 T=  1248. E= -.13645749E+02 F= -.13968490E+02 E0= -.13968490E+02  EK= 0.32274E+00 SP= 0.00E+00 SK= 0.00E+00
       N       E                     dE             d eps       ncg     rms          rms(c)
DAV:   1    -0.140414168480E+02   -0.72986E-01   -0.46012E-02    16   0.151E+00    0.290E-02
DAV:   2    -0.140415181701E+02   -0.10132E-03   -0.86729E-04    24   0.298E-01    0.293E-02
DAV:   3    -0.140415226183E+02   -0.44482E-05   -0.68171E-06    16   0.218E-02
  577 T=  1526. E= -.13647011E+02 F= -.14041523E+02 E0= -.14041523E+02  EK= 0.39451E+00 SP= 0.00E+00 SK= 0.00E+00
       N       E                     dE             d eps       ncg     rms          rms(c)
DAV:   1    -0.141163455170E+02   -0.74827E-01   -0.66058E-02    16   0.175E+00    0.501E-02
DAV:   2    -0.141165202987E+02   -0.17478E-03   -0.19193E-03    24   0.424E-01    0.232E-02
DAV:   3    -0.141165246170E+02   -0.43183E-05   -0.30555E-05    16   0.388E-02
  578 T=  1810. E= -.13648483E+02 F= -.14116525E+02 E0= -.14116525E+02  EK= 0.46804E+00 SP= 0.00E+00 SK= 0.00E+00
       N       E                     dE             d eps       ncg     rms          rms(c)
DAV:   1    -0.141702775876E+02   -0.53757E-01   -0.86661E-02    16   0.201E+00    0.313E-02
DAV:   2    -0.141705160438E+02   -0.23846E-03   -0.23407E-03    16   0.475E-01    0.382E-02
DAV:   3    -0.141705130752E+02    0.29686E-05   -0.18082E-05    24   0.393E-02
  579 T=  2015. E= -.13649680E+02 F= -.14170513E+02 E0= -.14170513E+02  EK= 0.52083E+00 SP= 0.00E+00 SK= 0.00E+00
       N       E                     dE             d eps       ncg     rms          rms(c)
DAV:   1    -0.141840367431E+02   -0.13521E-01   -0.91437E-02    16   0.216E+00    0.514E-02
DAV:   2    -0.141842193872E+02   -0.18264E-03   -0.24593E-03    16   0.524E-01    0.339E-02
DAV:   3    -0.141842226227E+02   -0.32354E-05   -0.21826E-05    32   0.452E-02
  580 T=  2066. E= -.13650096E+02 F= -.14184223E+02 E0= -.14184223E+02  EK= 0.53413E+00 SP= 0.00E+00 SK= 0.00E+00
       N       E                     dE             d eps       ncg     rms          rms(c)
DAV:   1    -0.141509395629E+02    0.33280E-01   -0.83542E-02    16   0.215E+00    0.551E-02
DAV:   2    -0.141511279331E+02   -0.18837E-03   -0.24439E-03    24   0.522E-01    0.267E-02
DAV:   3    -0.141511309446E+02   -0.30115E-05   -0.17557E-05    16   0.328E-02
  581 T=  1942. E= -.13649168E+02 F= -.14151131E+02 E0= -.14151131E+02  EK= 0.50196E+00 SP= 0.00E+00 SK= 0.00E+00
       N       E                     dE             d eps       ncg     rms          rms(c)
DAV:   1    -0.140873889719E+02    0.63739E-01   -0.68104E-02    16   0.215E+00    0.519E-02
DAV:   2    -0.140875142869E+02   -0.12531E-03   -0.17316E-03    24   0.453E-01    0.271E-02
DAV:   3    -0.140875145680E+02   -0.28117E-06   -0.55150E-06    16   0.242E-02
  582 T=  1706. E= -.13646602E+02 F= -.14087515E+02 E0= -.14087515E+02  EK= 0.44091E+00 SP= 0.00E+00 SK= 0.00E+00
       N       E                     dE             d eps       ncg     rms          rms(c)
DAV:   1    -0.140337055356E+02    0.53809E-01   -0.52717E-02    24   0.211E+00    0.692E-02
DAV:   2    -0.140337721520E+02   -0.66616E-04   -0.10365E-03    32   0.343E-01    0.329E-02
DAV:   3    -0.140337843794E+02   -0.12227E-04   -0.93923E-06    24   0.363E-02
  583 T=  1509. E= -.13643779E+02 F= -.14033784E+02 E0= -.14033784E+02  EK= 0.39001E+00 SP= 0.00E+00 SK= 0.00E+00
       N       E                     dE             d eps       ncg     rms          rms(c)
DAV:   1    -0.140311859380E+02    0.25862E-02   -0.40773E-02    16   0.177E+00    0.581E-02
DAV:   2    -0.140312464748E+02   -0.60537E-04   -0.69455E-04    24   0.273E-01
  584 T=  1500. E= -.13643527E+02 F= -.14031246E+02 E0= -.14031246E+02  EK= 0.38772E+00 SP= 0.00E+00 SK= 0.00E+00
       N       E                     dE             d eps       ncg     rms          rms(c)
DAV:   1    -0.140828155001E+02   -0.51630E-01   -0.44937E-02    16   0.154E+00    0.723E-02
DAV:   2    -0.140829026258E+02   -0.87126E-04   -0.89088E-04    24   0.282E-01
  585 T=  1689. E= -.13646374E+02 F= -.14082903E+02 E0= -.14082903E+02  EK= 0.43653E+00 SP= 0.00E+00 SK= 0.00E+00
       N       E                     dE             d eps       ncg     rms          rms(c)
DAV:   1    -0.141464514428E+02   -0.63636E-01   -0.63568E-02    24   0.175E+00    0.665E-02
DAV:   2    -0.141465323998E+02   -0.80957E-04   -0.11444E-03    24   0.361E-01    0.414E-02
DAV:   3    -0.141465439010E+02   -0.11501E-04   -0.57394E-06    24   0.217E-02
  586 T=  1923. E= -.13649485E+02 F= -.14146544E+02 E0= -.14146544E+02  EK= 0.49706E+00 SP= 0.00E+00 SK= 0.00E+00
       N       E                     dE             d eps       ncg     rms          rms(c)
DAV:   1    -0.141741097731E+02   -0.27577E-01   -0.82850E-02    16   0.206E+00    0.635E-02
DAV:   2    -0.141742551023E+02   -0.14533E-03   -0.18444E-03    24   0.483E-01    0.222E-02
DAV:   3    -0.141742626846E+02   -0.75823E-05   -0.10289E-05    16   0.284E-02
  587 T=  2026. E= -.13650459E+02 F= -.14174263E+02 E0= -.14174263E+02  EK= 0.52380E+00 SP= 0.00E+00 SK= 0.00E+00
       N       E                     dE             d eps       ncg     rms          rms(c)
DAV:   1    -0.141482055902E+02    0.26050E-01   -0.86820E-02    16   0.219E+00    0.588E-02
DAV:   2    -0.141483491076E+02   -0.14352E-03   -0.20566E-03    16   0.512E-01    0.272E-02
DAV:   3    -0.141483543536E+02   -0.52460E-05   -0.13883E-05    24   0.374E-02
  588 T=  1930. E= -.13649362E+02 F= -.14148354E+02 E0= -.14148354E+02  EK= 0.49899E+00 SP= 0.00E+00 SK= 0.00E+00
       N       E                     dE             d eps       ncg     rms          rms(c)
DAV:   1    -0.140820075926E+02    0.66342E-01   -0.73776E-02    16   0.199E+00    0.532E-02
DAV:   2    -0.140821258992E+02   -0.11831E-03   -0.19136E-03    24   0.469E-01    0.211E-02
DAV:   3    -0.140821244923E+02    0.14069E-05   -0.11760E-05    24   0.293E-02
  589 T=  1681. E= -.13647532E+02 F= -.14082124E+02 E0= -.14082124E+02  EK= 0.43459E+00 SP= 0.00E+00 SK= 0.00E+00
       N       E                     dE             d eps       ncg     rms          rms(c)
DAV:   1    -0.140020369793E+02    0.80089E-01   -0.63618E-02    16   0.197E+00    0.314E-02
DAV:   2    -0.140023376987E+02   -0.30072E-03   -0.30023E-03    24   0.526E-01    0.388E-02
DAV:   3    -0.140023310512E+02    0.66474E-05   -0.14706E-05    16   0.284E-02
  590 T=  1379. E= -.13645727E+02 F= -.14002331E+02 E0= -.14002331E+02  EK= 0.35660E+00 SP= 0.00E+00 SK= 0.00E+00
       N       E                     dE             d eps       ncg     rms          rms(c)
DAV:   1    -0.139348835397E+02    0.67454E-01   -0.41460E-02    24   0.168E+00    0.502E-02
DAV:   2    -0.139350082869E+02   -0.12475E-03   -0.11431E-03    16   0.327E-01    0.397E-02
DAV:   3    -0.139350344044E+02   -0.26118E-04   -0.37907E-05    24   0.548E-02
  591 T=  1124. E= -.13644508E+02 F= -.13935034E+02 E0= -.13935034E+02  EK= 0.29053E+00 SP= 0.00E+00 SK= 0.00E+00
       N       E                     dE             d eps       ncg     rms          rms(c)
DAV:   1    -0.138983719684E+02    0.36636E-01   -0.24072E-02    16   0.140E+00    0.165E-02
DAV:   2    -0.138984568391E+02   -0.84871E-04   -0.83582E-04    32   0.261E-01
  592 T=   984. E= -.13644000E+02 F= -.13898457E+02 E0= -.13898457E+02  EK= 0.25446E+00 SP= 0.00E+00 SK= 0.00E+00
       N       E                     dE             d eps       ncg     rms          rms(c)
DAV:   1    -0.139007299083E+02   -0.23579E-02   -0.13998E-02    16   0.121E+00    0.310E-02
DAV:   2    -0.139007806759E+02   -0.50768E-04   -0.39681E-04    24   0.206E-01
  593 T=   993. E= -.13644044E+02 F= -.13900781E+02 E0= -.13900781E+02  EK= 0.25674E+00 SP= 0.00E+00 SK= 0.00E+00
       N       E                     dE             d eps       ncg     rms          rms(c)
DAV:   1    -0.139408248583E+02   -0.40095E-01   -0.17025E-02    16   0.123E+00    0.173E-02
DAV:   2    -0.139408835926E+02   -0.58734E-04   -0.33993E-04    24   0.205E-01
  594 T=  1146. E= -.13644644E+02 F= -.13940884E+02 E0= -.13940884E+02  EK= 0.29624E+00 SP= 0.00E+00 SK= 0.00E+00
       N       E                     dE             d eps       ncg     rms          rms(c)
DAV:   1    -0.140089342762E+02   -0.68109E-01   -0.28711E-02    16   0.138E+00    0.241E-02
DAV:   2    -0.140090079491E+02   -0.73673E-04   -0.64123E-04    24   0.268E-01
  595 T=  1405. E= -.13645682E+02 F= -.14009008E+02 E0= -.14009008E+02  EK= 0.36333E+00 SP= 0.00E+00 SK= 0.00E+00
       N       E                     dE             d eps       ncg     rms          rms(c)
DAV:   1    -0.140881342721E+02   -0.79200E-01   -0.47382E-02    16   0.159E+00    0.290E-02
DAV:   2    -0.140882352684E+02   -0.10100E-03   -0.83974E-04    16   0.313E-01    0.328E-02
DAV:   3    -0.140882311628E+02    0.41056E-05   -0.51613E-06    24   0.221E-02
  596 T=  1707. E= -.13646942E+02 F= -.14088231E+02 E0= -.14088231E+02  EK= 0.44129E+00 SP= 0.00E+00 SK= 0.00E+00
       N       E                     dE             d eps       ncg     rms          rms(c)
DAV:   1    -0.141566401149E+02   -0.68405E-01   -0.65107E-02    32   0.177E+00    0.186E-02
DAV:   2    -0.141567396849E+02   -0.99570E-04   -0.72171E-04    16   0.284E-01
  597 T=  1967. E= -.13648329E+02 F= -.14156740E+02 E0= -.14156740E+02  EK= 0.50841E+00 SP= 0.00E+00 SK= 0.00E+00
       N       E                     dE             d eps       ncg     rms          rms(c)
DAV:   1    -0.141915467367E+02   -0.34907E-01   -0.79548E-02    32   0.197E+00    0.405E-02
DAV:   2    -0.141916647418E+02   -0.11801E-03   -0.92514E-04    16   0.335E-01    0.330E-02
DAV:   3    -0.141916826151E+02   -0.17873E-04   -0.13171E-05    16   0.368E-02
  598 T=  2097. E= -.13649497E+02 F= -.14191683E+02 E0= -.14191683E+02  EK= 0.54219E+00 SP= 0.00E+00 SK= 0.00E+00
       N       E                     dE             d eps       ncg     rms          rms(c)
DAV:   1    -0.141764116763E+02    0.15253E-01   -0.78606E-02    16   0.198E+00    0.451E-02
DAV:   2    -0.141765818184E+02   -0.17014E-03   -0.19419E-03    32   0.477E-01    0.216E-02
DAV:   3    -0.141765855427E+02   -0.37243E-05   -0.13209E-05    24   0.264E-02
  599 T=  2038. E= -.13649671E+02 F= -.14176586E+02 E0= -.14176586E+02  EK= 0.52691E+00 SP= 0.00E+00 SK= 0.00E+00
       N       E                     dE             d eps       ncg     rms          rms(c)
DAV:   1    -0.141132835022E+02    0.63298E-01   -0.63068E-02    16   0.188E+00    0.379E-02
DAV:   2    -0.141134494937E+02   -0.16599E-03   -0.16498E-03    24   0.437E-01    0.253E-02
DAV:   3    -0.141134645917E+02   -0.15098E-04   -0.22646E-06    32   0.150E-02
  600 T=  1801. E= -.13647794E+02 F= -.14113465E+02 E0= -.14113465E+02  EK= 0.46567E+00 SP= 0.00E+00 SK= 0.00E+00
       N       E                     dE             d eps       ncg     rms          rms(c)
DAV:   1    -0.140357825995E+02    0.77667E-01   -0.48386E-02    16   0.196E+00    0.763E-02
DAV:   2    -0.140359025730E+02   -0.11997E-03   -0.15945E-03    32   0.434E-01    0.364E-02
DAV:   3    -0.140359124146E+02   -0.98415E-05   -0.21571E-05    16   0.513E-02
  601 T=  1515. E= -.13644258E+02 F= -.14035912E+02 E0= -.14035912E+02  EK= 0.39165E+00 SP= 0.00E+00 SK= 0.00E+00
       N       E                     dE             d eps       ncg     rms          rms(c)
DAV:   1    -0.139999600143E+02    0.35943E-01   -0.28876E-02    16   0.158E+00    0.611E-02
DAV:   2    -0.140000607470E+02   -0.10073E-03   -0.92920E-04    24   0.292E-01    0.313E-02
DAV:   3    -0.140001034855E+02   -0.42738E-04   -0.21702E-05    16   0.447E-02
  602 T=  1385. E= -.13641998E+02 F= -.14000103E+02 E0= -.14000103E+02  EK= 0.35811E+00 SP= 0.00E+00 SK= 0.00E+00
       N       E                     dE             d eps       ncg     rms          rms(c)
DAV:   1    -0.140388983575E+02   -0.38838E-01   -0.25720E-02    24   0.127E+00    0.358E-02
DAV:   2    -0.140389841474E+02   -0.85790E-04   -0.72721E-04    16   0.242E-01
  603 T=  1528. E= -.13643960E+02 F= -.14038984E+02 E0= -.14038984E+02  EK= 0.39502E+00 SP= 0.00E+00 SK= 0.00E+00
       N       E                     dE             d eps       ncg     rms          rms(c)
DAV:   1    -0.141231035441E+02   -0.84205E-01   -0.43155E-02    24   0.150E+00    0.520E-02
DAV:   2    -0.141231782545E+02   -0.74710E-04   -0.64686E-04    32   0.288E-01
  604 T=  1838. E= -.13648139E+02 F= -.14123178E+02 E0= -.14123178E+02  EK= 0.47504E+00 SP= 0.00E+00 SK= 0.00E+00
       N       E                     dE             d eps       ncg     rms          rms(c)
DAV:   1    -0.141887367358E+02   -0.65633E-01   -0.66454E-02    16   0.188E+00    0.651E-02
DAV:   2    -0.141888242919E+02   -0.87556E-04   -0.15985E-03    24   0.443E-01    0.282E-02
DAV:   3    -0.141888331244E+02   -0.88326E-05   -0.83831E-06    32   0.257E-02
  605 T=  2082. E= -.13650577E+02 F= -.14188833E+02 E0= -.14188833E+02  EK= 0.53826E+00 SP= 0.00E+00 SK= 0.00E+00
       N       E                     dE             d eps       ncg     rms          rms(c)
DAV:   1    -0.141952008612E+02   -0.63766E-02   -0.80395E-02    32   0.210E+00    0.615E-02
DAV:   2    -0.141952957814E+02   -0.94920E-04   -0.15134E-03    16   0.431E-01    0.200E-02
DAV:   3    -0.141953059509E+02   -0.10169E-04   -0.13179E-05    32   0.373E-02
  606 T=  2109. E= -.13650166E+02 F= -.14195306E+02 E0= -.14195306E+02  EK= 0.54514E+00 SP= 0.00E+00 SK= 0.00E+00
       N       E                     dE             d eps       ncg     rms          rms(c)
DAV:   1    -0.141440701966E+02    0.51226E-01   -0.75113E-02    24   0.203E+00    0.579E-02
DAV:   2    -0.141441661051E+02   -0.95908E-04   -0.17190E-03    32   0.429E-01    0.209E-02
DAV:   3    -0.141441695456E+02   -0.34405E-05   -0.88815E-06    16   0.256E-02
  607 T=  1919. E= -.13648192E+02 F= -.14144170E+02 E0= -.14144170E+02  EK= 0.49598E+00 SP= 0.00E+00 SK= 0.00E+00
       N       E                     dE             d eps       ncg     rms          rms(c)
DAV:   1    -0.140623529182E+02    0.81813E-01   -0.62473E-02    24   0.180E+00    0.199E-02
DAV:   2    -0.140624938585E+02   -0.14094E-03   -0.14184E-03    32   0.360E-01    0.196E-02
DAV:   3    -0.140624950119E+02   -0.11534E-05   -0.39245E-06    16   0.155E-02
  608 T=  1611. E= -.13646072E+02 F= -.14062495E+02 E0= -.14062495E+02  EK= 0.41642E+00 SP= 0.00E+00 SK= 0.00E+00
       N       E                     dE             d eps       ncg     rms          rms(c)
DAV:   1    -0.139814439609E+02    0.81050E-01   -0.44976E-02    32   0.167E+00    0.275E-02
DAV:   2    -0.139815606886E+02   -0.11673E-03   -0.10304E-03    16   0.299E-01    0.228E-02
DAV:   3    -0.139815761796E+02   -0.15491E-04   -0.77221E-06    32   0.266E-02
  609 T=  1304. E= -.13644467E+02 F= -.13981576E+02 E0= -.13981576E+02  EK= 0.33711E+00 SP= 0.00E+00 SK= 0.00E+00
       N       E                     dE             d eps       ncg     rms          rms(c)
DAV:   1    -0.139253873739E+02    0.56173E-01   -0.25203E-02    32   0.140E+00    0.250E-02
DAV:   2    -0.139254443800E+02   -0.57006E-04   -0.60509E-04    32   0.218E-01
  610 T=  1090. E= -.13643606E+02 F= -.13925444E+02 E0= -.13925444E+02  EK= 0.28184E+00 SP= 0.00E+00 SK= 0.00E+00
       N       E                     dE             d eps       ncg     rms          rms(c)
DAV:   1    -0.139072058180E+02    0.18182E-01   -0.11997E-02    16   0.120E+00    0.279E-02
DAV:   2    -0.139072697798E+02   -0.63962E-04   -0.54540E-04    32   0.238E-01
  611 T=  1021. E= -.13643391E+02 F= -.13907270E+02 E0= -.13907270E+02  EK= 0.26388E+00 SP= 0.00E+00 SK= 0.00E+00
       N       E                     dE             d eps       ncg     rms          rms(c)
DAV:   1    -0.139295579310E+02   -0.22352E-01   -0.11877E-02    16   0.120E+00    0.208E-02
DAV:   2    -0.139296312450E+02   -0.73314E-04   -0.49257E-04    32   0.247E-01
  612 T=  1106. E= -.13643767E+02 F= -.13929631E+02 E0= -.13929631E+02  EK= 0.28586E+00 SP= 0.00E+00 SK= 0.00E+00
       N       E                     dE             d eps       ncg     rms          rms(c)
DAV:   1    -0.139853393712E+02   -0.55781E-01   -0.22321E-02    16   0.136E+00    0.171E-02
DAV:   2    -0.139854317155E+02   -0.92344E-04   -0.65518E-04    24   0.267E-01
  613 T=  1318. E= -.13644699E+02 F= -.13985432E+02 E0= -.13985432E+02  EK= 0.34073E+00 SP= 0.00E+00 SK= 0.00E+00
       N       E                     dE             d eps       ncg     rms          rms(c)
DAV:   1    -0.140588969445E+02   -0.73558E-01   -0.40400E-02    16   0.163E+00    0.290E-02
DAV:   2    -0.140589982934E+02   -0.10135E-03   -0.81201E-04    32   0.313E-01    0.313E-02
DAV:   3    -0.140589925696E+02    0.57238E-05   -0.10790E-06    32   0.104E-02
  614 T=  1597. E= -.13646036E+02 F= -.14058993E+02 E0= -.14058993E+02  EK= 0.41296E+00 SP= 0.00E+00 SK= 0.00E+00
       N       E                     dE             d eps       ncg     rms          rms(c)
DAV:   1    -0.141277472916E+02   -0.68749E-01   -0.58302E-02    24   0.191E+00    0.305E-02
DAV:   2    -0.141278800936E+02   -0.13280E-03   -0.12466E-03    16   0.369E-01    0.158E-02
DAV:   3    -0.141278912883E+02   -0.11195E-04   -0.10953E-05    32   0.312E-02
  615 T=  1858. E= -.13647664E+02 F= -.14127891E+02 E0= -.14127891E+02  EK= 0.48023E+00 SP= 0.00E+00 SK= 0.00E+00
       N       E                     dE             d eps       ncg     rms          rms(c)
DAV:   1    -0.141663190854E+02   -0.38439E-01   -0.72444E-02    16   0.224E+00    0.450E-02
DAV:   2    -0.141666302201E+02   -0.31113E-03   -0.33743E-03    32   0.566E-01    0.403E-02
DAV:   3    -0.141666244108E+02    0.58092E-05   -0.32867E-05    16   0.418E-02
  616 T=  2002. E= -.13648981E+02 F= -.14166624E+02 E0= -.14166624E+02  EK= 0.51764E+00 SP= 0.00E+00 SK= 0.00E+00
       N       E                     dE             d eps       ncg     rms          rms(c)
DAV:   1    -0.141551688938E+02    0.11461E-01   -0.75896E-02    32   0.242E+00    0.461E-02
DAV:   2    -0.141553213374E+02   -0.15244E-03   -0.13920E-03    32   0.383E-01    0.435E-02
DAV:   3    -0.141553272357E+02   -0.58984E-05   -0.69709E-06    32   0.270E-02
  617 T=  1958. E= -.13649089E+02 F= -.14155327E+02 E0= -.14155327E+02  EK= 0.50624E+00 SP= 0.00E+00 SK= 0.00E+00
       N       E                     dE             d eps       ncg     rms          rms(c)
DAV:   1    -0.140948070540E+02    0.60514E-01   -0.56146E-02    32   0.231E+00    0.686E-02
DAV:   2    -0.140948755380E+02   -0.68484E-04   -0.12408E-03    16   0.372E-01    0.279E-02
DAV:   3    -0.140948953360E+02   -0.19798E-04   -0.23913E-05    24   0.479E-02
  618 T=  1733. E= -.13646911E+02 F= -.14094895E+02 E0= -.14094895E+02  EK= 0.44798E+00 SP= 0.00E+00 SK= 0.00E+00
       N       E                     dE             d eps       ncg     rms          rms(c)
DAV:   1    -0.140218344627E+02    0.73041E-01   -0.45846E-02    32   0.252E+00    0.606E-02
DAV:   2    -0.140219844086E+02   -0.14995E-03   -0.18327E-03    32   0.452E-01    0.271E-02
DAV:   3    -0.140220063890E+02   -0.21980E-04   -0.70936E-06    32   0.285E-02
  619 T=  1466. E= -.13642898E+02 F= -.14022006E+02 E0= -.14022006E+02  EK= 0.37911E+00 SP= 0.00E+00 SK= 0.00E+00
       N       E                     dE             d eps       ncg     rms          rms(c)
DAV:   1    -0.139968154892E+02    0.25169E-01   -0.32760E-02    32   0.218E+00    0.649E-02
DAV:   2    -0.139968947379E+02   -0.79249E-04   -0.83914E-04    16   0.321E-01
  620 T=  1378. E= -.13640705E+02 F= -.13996895E+02 E0= -.13996895E+02  EK= 0.35619E+00 SP= 0.00E+00 SK= 0.00E+00
       N       E                     dE             d eps       ncg     rms          rms(c)
DAV:   1    -0.140499185464E+02   -0.53103E-01   -0.27037E-02    32   0.169E+00    0.759E-02
DAV:   2    -0.140500298356E+02   -0.11129E-03   -0.76255E-04    16   0.285E-01    0.478E-02
DAV:   3    -0.140501340037E+02   -0.10417E-03   -0.29484E-05    16   0.556E-02    0.102E-02
DAV:   4    -0.140501724540E+02   -0.38450E-04   -0.46806E-06    32   0.191E-02
  621 T=  1574. E= -.13643284E+02 F= -.14050172E+02 E0= -.14050172E+02  EK= 0.40689E+00 SP= 0.00E+00 SK= 0.00E+00
       N       E                     dE             d eps       ncg     rms          rms(c)
DAV:   1    -0.141449962914E+02   -0.94862E-01   -0.53130E-02    32   0.175E+00    0.402E-02
DAV:   2    -0.141450843979E+02   -0.88106E-04   -0.84481E-04    16   0.295E-01
  622 T=  1923. E= -.13647852E+02 F= -.14145084E+02 E0= -.14145084E+02  EK= 0.49723E+00 SP= 0.00E+00 SK= 0.00E+00
       N       E                     dE             d eps       ncg     rms          rms(c)
DAV:   1    -0.142147217676E+02   -0.69725E-01   -0.85736E-02    32   0.208E+00    0.750E-02
DAV:   2    -0.142148469433E+02   -0.12518E-03   -0.11669E-03    16   0.362E-01    0.446E-02
DAV:   3    -0.142149009335E+02   -0.53990E-04   -0.15225E-05    32   0.387E-02
  623 T=  2184. E= -.13650226E+02 F= -.14214901E+02 E0= -.14214901E+02  EK= 0.56467E+00 SP= 0.00E+00 SK= 0.00E+00
       N       E                     dE             d eps       ncg     rms          rms(c)
DAV:   1    -0.142209920502E+02   -0.61451E-02   -0.10571E-01    16   0.239E+00    0.621E-02
DAV:   2    -0.142212002996E+02   -0.20825E-03   -0.25989E-03    32   0.539E-01    0.236E-02
DAV:   3    -0.142212099962E+02   -0.96967E-05   -0.55074E-06    32   0.188E-02
  624 T=  2211. E= -.13649741E+02 F= -.14221210E+02 E0= -.14221210E+02  EK= 0.57147E+00 SP= 0.00E+00 SK= 0.00E+00
       N       E                     dE             d eps       ncg     rms          rms(c)
DAV:   1    -0.141675462903E+02    0.53654E-01   -0.11884E-01    16   0.290E+00    0.914E-02
DAV:   2    -0.141677495192E+02   -0.20323E-03   -0.32046E-03    32   0.592E-01    0.394E-02
DAV:   3    -0.141677580219E+02   -0.85027E-05   -0.13958E-05    32   0.293E-02
  625 T=  2011. E= -.13647799E+02 F= -.14167758E+02 E0= -.14167758E+02  EK= 0.51996E+00 SP= 0.00E+00 SK= 0.00E+00
       N       E                     dE             d eps       ncg     rms          rms(c)
DAV:   1    -0.140816301489E+02    0.86119E-01   -0.13447E-01    16   0.308E+00    0.580E-02
DAV:   2    -0.140821184632E+02   -0.48831E-03   -0.47777E-03    24   0.616E-01    0.617E-02
DAV:   3    -0.140821035475E+02    0.14916E-04   -0.17436E-05    32   0.326E-02
  626 T=  1688. E= -.13645629E+02 F= -.14082104E+02 E0= -.14082104E+02  EK= 0.43647E+00 SP= 0.00E+00 SK= 0.00E+00
       N       E                     dE             d eps       ncg     rms          rms(c)
DAV:   1    -0.139946616833E+02    0.87457E-01   -0.71040E-02    24   0.204E+00    0.680E-02
DAV:   2    -0.139948498960E+02   -0.18821E-03   -0.15333E-03    24   0.377E-01    0.533E-02
DAV:   3    -0.139948908956E+02   -0.41000E-04   -0.76656E-05    32   0.771E-02
  627 T=  1358. E= -.13643933E+02 F= -.13994891E+02 E0= -.13994891E+02  EK= 0.35096E+00 SP= 0.00E+00 SK= 0.00E+00
       N       E                     dE             d eps       ncg     rms          rms(c)
DAV:   1    -0.139299992731E+02    0.64851E-01   -0.43343E-02    16   0.156E+00    0.300E-02
DAV:   2    -0.139301605924E+02   -0.16132E-03   -0.14290E-03    32   0.332E-01    0.229E-02
DAV:   3    -0.139301617208E+02   -0.11284E-05   -0.21267E-05    32   0.317E-02
  628 T=  1110. E= -.13643075E+02 F= -.13930162E+02 E0= -.13930162E+02  EK= 0.28709E+00 SP= 0.00E+00 SK= 0.00E+00
       N       E                     dE             d eps       ncg     rms          rms(c)
DAV:   1    -0.139017025153E+02    0.28458E-01   -0.17109E-02    24   0.119E+00    0.270E-02
DAV:   2    -0.139017276833E+02   -0.25168E-04   -0.28382E-04    32   0.169E-01
  629 T=  1001. E= -.13642823E+02 F= -.13901728E+02 E0= -.13901728E+02  EK= 0.25890E+00 SP= 0.00E+00 SK= 0.00E+00
       N       E                     dE             d eps       ncg     rms          rms(c)
DAV:   1    -0.139136493542E+02   -0.11947E-01   -0.80646E-03    16   0.112E+00    0.328E-02
DAV:   2    -0.139136814434E+02   -0.32089E-04   -0.20058E-04    32   0.152E-01
  630 T=  1047. E= -.13643113E+02 F= -.13913681E+02 E0= -.13913681E+02  EK= 0.27057E+00 SP= 0.00E+00 SK= 0.00E+00
       N       E                     dE             d eps       ncg     rms          rms(c)
DAV:   1    -0.139613294555E+02   -0.47680E-01   -0.93926E-03    16   0.125E+00    0.151E-02
DAV:   2    -0.139613702747E+02   -0.40819E-04   -0.29116E-04    32   0.180E-01
  631 T=  1228. E= -.13643888E+02 F= -.13961370E+02 E0= -.13961370E+02  EK= 0.31748E+00 SP= 0.00E+00 SK= 0.00E+00
       N       E                     dE             d eps       ncg     rms          rms(c)
DAV:   1    -0.140321186017E+02   -0.70789E-01   -0.20235E-02    16   0.153E+00    0.195E-02
DAV:   2    -0.140321907935E+02   -0.72192E-04   -0.52886E-04    32   0.237E-01
  632 T=  1497. E= -.13645074E+02 F= -.14032191E+02 E0= -.14032191E+02  EK= 0.38712E+00 SP= 0.00E+00 SK= 0.00E+00
       N       E                     dE             d eps       ncg     rms          rms(c)
DAV:   1    -0.141063522045E+02   -0.74234E-01   -0.37819E-02    16   0.188E+00    0.481E-02
DAV:   2    -0.141064719114E+02   -0.11971E-03   -0.97126E-04    16   0.335E-01    0.450E-02
DAV:   3    -0.141064984729E+02   -0.26561E-04   -0.87180E-05    24   0.843E-02
  633 T=  1778. E= -.13646764E+02 F= -.14106498E+02 E0= -.14106498E+02  EK= 0.45973E+00 SP= 0.00E+00 SK= 0.00E+00
       N       E                     dE             d eps       ncg     rms          rms(c)
DAV:   1    -0.141594515144E+02   -0.52980E-01   -0.52058E-02    16   0.209E+00    0.848E-02
DAV:   2    -0.141596182012E+02   -0.16669E-03   -0.22733E-03    32   0.490E-01    0.254E-02
DAV:   3    -0.141596311256E+02   -0.12924E-04   -0.45950E-05    32   0.483E-02
  634 T=  1977. E= -.13648563E+02 F= -.14159631E+02 E0= -.14159631E+02  EK= 0.51107E+00 SP= 0.00E+00 SK= 0.00E+00
       N       E                     dE             d eps       ncg     rms          rms(c)
DAV:   1    -0.141671183895E+02   -0.75002E-02   -0.65984E-02    16   0.241E+00    0.285E-02
DAV:   2    -0.141673529468E+02   -0.23456E-03   -0.22741E-03    24   0.528E-01    0.413E-02
DAV:   3    -0.141673508074E+02    0.21393E-05   -0.24144E-06    24   0.164E-02
  635 T=  2003. E= -.13649501E+02 F= -.14167351E+02 E0= -.14167351E+02  EK= 0.51785E+00 SP= 0.00E+00 SK= 0.00E+00
       N       E                     dE             d eps       ncg     rms          rms(c)
DAV:   1    -0.141169785273E+02    0.50374E-01   -0.59363E-02    16   0.235E+00    0.523E-02
DAV:   2    -0.141171489439E+02   -0.17042E-03   -0.17930E-03    32   0.482E-01    0.473E-02
DAV:   3    -0.141171525775E+02   -0.36336E-05   -0.79224E-06    16   0.280E-02
  636 T=  1813. E= -.13648521E+02 F= -.14117153E+02 E0= -.14117153E+02  EK= 0.46863E+00 SP= 0.00E+00 SK= 0.00E+00
       N       E                     dE             d eps       ncg     rms          rms(c)
DAV:   1    -0.140268607739E+02    0.90288E-01   -0.42002E-02    16   0.215E+00    0.104E-01
DAV:   2    -0.140269574698E+02   -0.96696E-04   -0.20159E-03    24   0.508E-01    0.534E-02
DAV:   3    -0.140269618860E+02   -0.44162E-05   -0.42597E-05    16   0.748E-02
  637 T=  1477. E= -.13645083E+02 F= -.14026962E+02 E0= -.14026962E+02  EK= 0.38188E+00 SP= 0.00E+00 SK= 0.00E+00
       N       E                     dE             d eps       ncg     rms          rms(c)
DAV:   1    -0.139526337893E+02    0.74324E-01   -0.29735E-02    24   0.209E+00    0.582E-02
DAV:   2    -0.139527776836E+02   -0.14389E-03   -0.15523E-03    24   0.427E-01    0.256E-02
DAV:   3    -0.139528028075E+02   -0.25124E-04   -0.28294E-06    16   0.167E-02
  638 T=  1206. E= -.13641053E+02 F= -.13952803E+02 E0= -.13952803E+02  EK= 0.31175E+00 SP= 0.00E+00 SK= 0.00E+00
       N       E                     dE             d eps       ncg     rms          rms(c)
DAV:   1    -0.139548923898E+02   -0.21147E-02   -0.18341E-02    24   0.140E+00    0.483E-02
DAV:   2    -0.139549222271E+02   -0.29837E-04   -0.42638E-04    16   0.222E-01
  639 T=  1215. E= -.13640760E+02 F= -.13954922E+02 E0= -.13954922E+02  EK= 0.31416E+00 SP= 0.00E+00 SK= 0.00E+00
       N       E                     dE             d eps       ncg     rms          rms(c)
DAV:   1    -0.140371063227E+02   -0.82214E-01   -0.32261E-02    32   0.115E+00    0.453E-02
DAV:   2    -0.140371642106E+02   -0.57888E-04   -0.38633E-04    16   0.205E-01
  640 T=  1518. E= -.13644776E+02 F= -.14037164E+02 E0= -.14037164E+02  EK= 0.39239E+00 SP= 0.00E+00 SK= 0.00E+00
       N       E                     dE             d eps       ncg     rms          rms(c)
DAV:   1    -0.141390133588E+02   -0.10191E+00   -0.65222E-02    16   0.162E+00    0.556E-02
DAV:   2    -0.141391279206E+02   -0.11456E-03   -0.11362E-03    24   0.380E-01    0.292E-02
DAV:   3    -0.141391579079E+02   -0.29987E-04   -0.43593E-06    16   0.192E-02
  641 T=  1896. E= -.13648892E+02 F= -.14139158E+02 E0= -.14139158E+02  EK= 0.49027E+00 SP= 0.00E+00 SK= 0.00E+00
       N       E                     dE             d eps       ncg     rms          rms(c)
DAV:   1    -0.141964187251E+02   -0.57291E-01   -0.93071E-02    16   0.202E+00    0.706E-02
DAV:   2    -0.141965420277E+02   -0.12330E-03   -0.20973E-03    24   0.512E-01    0.238E-02
DAV:   3    -0.141965516924E+02   -0.96647E-05   -0.86058E-06    32   0.265E-02
  642 T=  2114. E= -.13650046E+02 F= -.14196552E+02 E0= -.14196552E+02  EK= 0.54651E+00 SP= 0.00E+00 SK= 0.00E+00
       N       E                     dE             d eps       ncg     rms          rms(c)
DAV:   1    -0.141870464867E+02    0.94955E-02   -0.10192E-01    16   0.213E+00    0.686E-02
DAV:   2    -0.141871984288E+02   -0.15194E-03   -0.23350E-03    24   0.550E-01    0.237E-02
DAV:   3    -0.141872116160E+02   -0.13187E-04   -0.12427E-05    24   0.311E-02
  643 T=  2083. E= -.13648709E+02 F= -.14187212E+02 E0= -.14187212E+02  EK= 0.53850E+00 SP= 0.00E+00 SK= 0.00E+00
       N       E                     dE             d eps       ncg     rms          rms(c)
DAV:   1    -0.141271271435E+02    0.60071E-01   -0.90708E-02    24   0.186E+00    0.440E-02
DAV:   2    -0.141272465287E+02   -0.11939E-03   -0.16676E-03    24   0.411E-01    0.183E-02
DAV:   3    -0.141272469556E+02   -0.42684E-06   -0.81939E-06    24   0.255E-02
  644 T=  1859. E= -.13646614E+02 F= -.14127247E+02 E0= -.14127247E+02  EK= 0.48063E+00 SP= 0.00E+00 SK= 0.00E+00
       N       E                     dE             d eps       ncg     rms          rms(c)
DAV:   1    -0.140472104889E+02    0.80036E-01   -0.80685E-02    24   0.180E+00    0.201E-02
DAV:   2    -0.140474265658E+02   -0.21608E-03   -0.20228E-03    24   0.402E-01    0.295E-02
DAV:   3    -0.140474255360E+02    0.10298E-05   -0.13221E-06    24   0.117E-02
  645 T=  1558. E= -.13644588E+02 F= -.14047426E+02 E0= -.14047426E+02  EK= 0.40284E+00 SP= 0.00E+00 SK= 0.00E+00
       N       E                     dE             d eps       ncg     rms          rms(c)
DAV:   1    -0.139766295388E+02    0.70797E-01   -0.52482E-02    24   0.146E+00    0.570E-02
DAV:   2    -0.139767611054E+02   -0.13157E-03   -0.12506E-03    16   0.338E-01    0.414E-02
DAV:   3    -0.139768057620E+02   -0.44657E-04   -0.67639E-05    24   0.663E-02
  646 T=  1290. E= -.13643233E+02 F= -.13976806E+02 E0= -.13976806E+02  EK= 0.33357E+00 SP= 0.00E+00 SK= 0.00E+00
       N       E                     dE             d eps       ncg     rms          rms(c)
DAV:   1    -0.139353754906E+02    0.41386E-01   -0.28606E-02    16   0.117E+00    0.211E-02
DAV:   2    -0.139354488964E+02   -0.73406E-04   -0.80252E-04    24   0.275E-01
  647 T=  1133. E= -.13642648E+02 F= -.13935449E+02 E0= -.13935449E+02  EK= 0.29280E+00 SP= 0.00E+00 SK= 0.00E+00
       N       E                     dE             d eps       ncg     rms          rms(c)
DAV:   1    -0.139327482493E+02    0.26272E-02   -0.11848E-02    16   0.981E-01    0.185E-02
DAV:   2    -0.139328081365E+02   -0.59887E-04   -0.40104E-04    24   0.219E-01
  648 T=  1123. E= -.13642580E+02 F= -.13932808E+02 E0= -.13932808E+02  EK= 0.29023E+00 SP= 0.00E+00 SK= 0.00E+00
       N       E                     dE             d eps       ncg     rms          rms(c)
DAV:   1    -0.139687574865E+02   -0.36009E-01   -0.11349E-02    16   0.108E+00    0.229E-02
DAV:   2    -0.139688115300E+02   -0.54043E-04   -0.35686E-04    24   0.209E-01
  649 T=  1260. E= -.13643085E+02 F= -.13968812E+02 E0= -.13968812E+02  EK= 0.32573E+00 SP= 0.00E+00 SK= 0.00E+00
       N       E                     dE             d eps       ncg     rms          rms(c)
DAV:   1    -0.140339351685E+02   -0.65178E-01   -0.21671E-02    16   0.133E+00    0.177E-02
DAV:   2    -0.140340090922E+02   -0.73924E-04   -0.50007E-04    16   0.238E-01
  650 T=  1508. E= -.13644215E+02 F= -.14034009E+02 E0= -.14034009E+02  EK= 0.38979E+00 SP= 0.00E+00 SK= 0.00E+00
       N       E                     dE             d eps       ncg     rms          rms(c)
DAV:   1    -0.141098520695E+02   -0.75917E-01   -0.40035E-02    16   0.168E+00    0.356E-02
DAV:   2    -0.141099240271E+02   -0.71958E-04   -0.70375E-04    16   0.303E-01
  651 T=  1795. E= -.13645875E+02 F= -.14109924E+02 E0= -.14109924E+02  EK= 0.46405E+00 SP= 0.00E+00 SK= 0.00E+00
       N       E                     dE             d eps       ncg     rms          rms(c)
DAV:   1    -0.141701125415E+02   -0.60260E-01   -0.56730E-02    24   0.198E+00    0.331E-02
DAV:   2    -0.141702245152E+02   -0.11197E-03   -0.12915E-03    16   0.391E-01    0.223E-02
DAV:   3    -0.141702323780E+02   -0.78628E-05   -0.11260E-05    24   0.334E-02
  652 T=  2021. E= -.13647808E+02 F= -.14170232E+02 E0= -.14170232E+02  EK= 0.52242E+00 SP= 0.00E+00 SK= 0.00E+00
       N       E                     dE             d eps       ncg     rms          rms(c)
DAV:   1    -0.141854220591E+02   -0.15198E-01   -0.70284E-02    16   0.230E+00    0.294E-02
DAV:   2    -0.141856590750E+02   -0.23702E-03   -0.22836E-03    24   0.501E-01    0.220E-02
DAV:   3    -0.141856612105E+02   -0.21355E-05   -0.84898E-06    24   0.228E-02
  653 T=  2075. E= -.13649285E+02 F= -.14185661E+02 E0= -.14185661E+02  EK= 0.53638E+00 SP= 0.00E+00 SK= 0.00E+00
       N       E                     dE             d eps       ncg     rms          rms(c)
DAV:   1    -0.141362883581E+02    0.49371E-01   -0.69393E-02    24   0.251E+00    0.345E-02
DAV:   2    -0.141365254008E+02   -0.23704E-03   -0.23550E-03    16   0.511E-01    0.433E-02
DAV:   3    -0.141365221470E+02    0.32538E-05   -0.11201E-05    32   0.338E-02
  654 T=  1887. E= -.13648602E+02 F= -.14136522E+02 E0= -.14136522E+02  EK= 0.48792E+00 SP= 0.00E+00 SK= 0.00E+00
       N       E                     dE             d eps       ncg     rms          rms(c)
DAV:   1    -0.140357321414E+02    0.10079E+00   -0.47272E-02    16   0.233E+00    0.579E-02
DAV:   2    -0.140359540697E+02   -0.22193E-03   -0.19310E-03    24   0.482E-01    0.435E-02
DAV:   3    -0.140359674979E+02   -0.13428E-04   -0.63451E-06    16   0.246E-02
  655 T=  1513. E= -.13644738E+02 F= -.14035967E+02 E0= -.14035967E+02  EK= 0.39123E+00 SP= 0.00E+00 SK= 0.00E+00
       N       E                     dE             d eps       ncg     rms          rms(c)
DAV:   1    -0.139446748561E+02    0.91279E-01   -0.31179E-02    16   0.233E+00    0.201E-01
DAV:   2    -0.139447174858E+02   -0.42630E-04   -0.30928E-03    24   0.590E-01    0.104E-01
DAV:   3    -0.139447782038E+02   -0.60718E-04   -0.85718E-05    24   0.988E-02
  656 T=  1180. E= -.13639775E+02 F= -.13944778E+02 E0= -.13944778E+02  EK= 0.30500E+00 SP= 0.00E+00 SK= 0.00E+00
       N       E                     dE             d eps       ncg     rms          rms(c)
DAV:   1    -0.139359311875E+02    0.87863E-02   -0.12109E-02    16   0.168E+00    0.306E-02
DAV:   2    -0.139360849538E+02   -0.15377E-03   -0.11502E-03    32   0.360E-01    0.159E-02
DAV:   3    -0.139361167976E+02   -0.31844E-04   -0.41053E-06    16   0.185E-02
  657 T=  1149. E= -.13638982E+02 F= -.13936117E+02 E0= -.13936117E+02  EK= 0.29713E+00 SP= 0.00E+00 SK= 0.00E+00
       N       E                     dE             d eps       ncg     rms          rms(c)
DAV:   1    -0.140204282619E+02   -0.84343E-01   -0.27264E-02    16   0.140E+00    0.357E-02
DAV:   2    -0.140205176183E+02   -0.89356E-04   -0.69782E-04    32   0.272E-01
  658 T=  1458. E= -.13643616E+02 F= -.14020518E+02 E0= -.14020518E+02  EK= 0.37690E+00 SP= 0.00E+00 SK= 0.00E+00
       N       E                     dE             d eps       ncg     rms          rms(c)
DAV:   1    -0.141310345781E+02   -0.11061E+00   -0.64572E-02    24   0.177E+00    0.650E-02
DAV:   2    -0.141311394400E+02   -0.10486E-03   -0.89920E-04    16   0.334E-01    0.398E-02
DAV:   3    -0.141311783192E+02   -0.38879E-04   -0.12254E-05    32   0.334E-02
  659 T=  1868. E= -.13648376E+02 F= -.14131178E+02 E0= -.14131178E+02  EK= 0.48280E+00 SP= 0.00E+00 SK= 0.00E+00
       N       E                     dE             d eps       ncg     rms          rms(c)
DAV:   1    -0.141947436530E+02   -0.63604E-01   -0.98390E-02    32   0.215E+00    0.653E-02
DAV:   2    -0.141948186768E+02   -0.75024E-04   -0.12184E-03    16   0.359E-01    0.238E-02
DAV:   3    -0.141948373608E+02   -0.18684E-04   -0.13531E-05    32   0.367E-02
  660 T=  2109. E= -.13649637E+02 F= -.14194837E+02 E0= -.14194837E+02  EK= 0.54520E+00 SP= 0.00E+00 SK= 0.00E+00
       N       E                     dE             d eps       ncg     rms          rms(c)
DAV:   1    -0.141861107242E+02    0.87080E-02   -0.11564E-01    16   0.240E+00    0.788E-02
DAV:   2    -0.141863149872E+02   -0.20426E-03   -0.26466E-03    32   0.535E-01    0.337E-02
DAV:   3    -0.141863285157E+02   -0.13528E-04   -0.10046E-05    16   0.269E-02
  661 T=  2081. E= -.13648223E+02 F= -.14186329E+02 E0= -.14186329E+02  EK= 0.53811E+00 SP= 0.00E+00 SK= 0.00E+00
       N       E                     dE             d eps       ncg     rms          rms(c)
DAV:   1    -0.141227224855E+02    0.63593E-01   -0.99644E-02    16   0.189E+00    0.541E-02
DAV:   2    -0.141229077779E+02   -0.18529E-03   -0.23650E-03    32   0.495E-01    0.238E-02
DAV:   3    -0.141229056175E+02    0.21605E-05   -0.19134E-05    16   0.347E-02
  662 T=  1845. E= -.13645972E+02 F= -.14122906E+02 E0= -.14122906E+02  EK= 0.47693E+00 SP= 0.00E+00 SK= 0.00E+00
       N       E                     dE             d eps       ncg     rms          rms(c)
DAV:   1    -0.140372514700E+02    0.85656E-01   -0.10776E-01    16   0.225E+00    0.346E-02
DAV:   2    -0.140375461048E+02   -0.29463E-03   -0.28467E-03    32   0.472E-01    0.442E-02
DAV:   3    -0.140375413810E+02    0.47239E-05   -0.17211E-06    16   0.125E-02
  663 T=  1523. E= -.13643840E+02 F= -.14037541E+02 E0= -.14037541E+02  EK= 0.39370E+00 SP= 0.00E+00 SK= 0.00E+00
       N       E                     dE             d eps       ncg     rms          rms(c)
DAV:   1    -0.139603364700E+02    0.77210E-01   -0.64483E-02    16   0.157E+00    0.550E-02
DAV:   2    -0.139605000277E+02   -0.16356E-03   -0.14889E-03    24   0.348E-01    0.503E-02
DAV:   3    -0.139605109630E+02   -0.10935E-04   -0.51847E-05    16   0.562E-02
  664 T=  1231. E= -.13642311E+02 F= -.13960511E+02 E0= -.13960511E+02  EK= 0.31820E+00 SP= 0.00E+00 SK= 0.00E+00
       N       E                     dE             d eps       ncg     rms          rms(c)
DAV:   1    -0.139129993069E+02    0.47501E-01   -0.36025E-02    16   0.118E+00    0.215E-02
DAV:   2    -0.139130812630E+02   -0.81956E-04   -0.69611E-04    24   0.229E-01
  665 T=  1050. E= -.13641590E+02 F= -.13913081E+02 E0= -.13913081E+02  EK= 0.27149E+00 SP= 0.00E+00 SK= 0.00E+00
       N       E                     dE             d eps       ncg     rms          rms(c)
DAV:   1    -0.139059475563E+02    0.70518E-02   -0.17982E-02    16   0.976E-01    0.413E-02
DAV:   2    -0.139059802829E+02   -0.32727E-04   -0.43531E-04    32   0.185E-01
  666 T=  1023. E= -.13641471E+02 F= -.13905980E+02 E0= -.13905980E+02  EK= 0.26451E+00 SP= 0.00E+00 SK= 0.00E+00
       N       E                     dE             d eps       ncg     rms          rms(c)
DAV:   1    -0.139405342267E+02   -0.34587E-01   -0.12774E-02    16   0.108E+00    0.278E-02
DAV:   2    -0.139405758135E+02   -0.41587E-04   -0.27336E-04    32   0.164E-01
  667 T=  1155. E= -.13641979E+02 F= -.13940576E+02 E0= -.13940576E+02  EK= 0.29860E+00 SP= 0.00E+00 SK= 0.00E+00
       N       E                     dE             d eps       ncg     rms          rms(c)
DAV:   1    -0.140090537902E+02   -0.68520E-01   -0.18321E-02    16   0.136E+00    0.233E-02
DAV:   2    -0.140091063959E+02   -0.52606E-04   -0.43210E-04    32   0.222E-01
  668 T=  1416. E= -.13643029E+02 F= -.14009106E+02 E0= -.14009106E+02  EK= 0.36608E+00 SP= 0.00E+00 SK= 0.00E+00
       N       E                     dE             d eps       ncg     rms          rms(c)
DAV:   1    -0.140949003029E+02   -0.85847E-01   -0.32626E-02    16   0.174E+00    0.232E-02
DAV:   2    -0.140950131487E+02   -0.11285E-03   -0.74045E-04    24   0.295E-01    0.252E-02
DAV:   3    -0.140950143536E+02   -0.12049E-05   -0.55407E-07    16   0.810E-03
  669 T=  1743. E= -.13644521E+02 F= -.14095014E+02 E0= -.14095014E+02  EK= 0.45049E+00 SP= 0.00E+00 SK= 0.00E+00
       N       E                     dE             d eps       ncg     rms          rms(c)
DAV:   1    -0.141736672955E+02   -0.78654E-01   -0.48807E-02    16   0.208E+00    0.211E-02
DAV:   2    -0.141738242455E+02   -0.15695E-03   -0.14503E-03    24   0.405E-01    0.199E-02
DAV:   3    -0.141738280003E+02   -0.37548E-05   -0.71537E-06    16   0.199E-02
  670 T=  2040. E= -.13646428E+02 F= -.14173828E+02 E0= -.14173828E+02  EK= 0.52740E+00 SP= 0.00E+00 SK= 0.00E+00
       N       E                     dE             d eps       ncg     rms          rms(c)
DAV:   1    -0.142158661732E+02   -0.42042E-01   -0.63923E-02    16   0.245E+00    0.159E-02
DAV:   2    -0.142161274337E+02   -0.26126E-03   -0.24169E-03    32   0.513E-01    0.348E-02
DAV:   3    -0.142161243806E+02    0.30531E-05   -0.11920E-06    16   0.110E-02
  671 T=  2198. E= -.13648017E+02 F= -.14216124E+02 E0= -.14216124E+02  EK= 0.56811E+00 SP= 0.00E+00 SK= 0.00E+00
       N       E                     dE             d eps       ncg     rms          rms(c)
DAV:   1    -0.141969955953E+02    0.19132E-01   -0.67180E-02    16   0.267E+00    0.339E-02
DAV:   2    -0.141973492224E+02   -0.35363E-03   -0.32857E-03    24   0.588E-01    0.523E-02
DAV:   3    -0.141973343408E+02    0.14882E-04   -0.36141E-06    16   0.207E-02
  672 T=  2125. E= -.13648009E+02 F= -.14197334E+02 E0= -.14197334E+02  EK= 0.54932E+00 SP= 0.00E+00 SK= 0.00E+00
       N       E                     dE             d eps       ncg     rms          rms(c)
DAV:   1    -0.141159256675E+02    0.81424E-01   -0.55856E-02    16   0.274E+00    0.449E-02
DAV:   2    -0.141163511974E+02   -0.42553E-03   -0.42146E-03    32   0.653E-01    0.534E-02
DAV:   3    -0.141163413645E+02    0.98329E-05   -0.53209E-06    16   0.208E-02
  673 T=  1822. E= -.13645362E+02 F= -.14116341E+02 E0= -.14116341E+02  EK= 0.47098E+00 SP= 0.00E+00 SK= 0.00E+00
       N       E                     dE             d eps       ncg     rms          rms(c)
DAV:   1    -0.140131998043E+02    0.10315E+00   -0.56199E-02    24   0.302E+00    0.168E-01
DAV:   2    -0.140132352745E+02   -0.35470E-04   -0.31224E-03    16   0.570E-01    0.816E-02
DAV:   3    -0.140133024404E+02   -0.67166E-04   -0.62314E-05    32   0.818E-02
  674 T=  1441. E= -.13640674E+02 F= -.14013302E+02 E0= -.14013302E+02  EK= 0.37263E+00 SP= 0.00E+00 SK= 0.00E+00
       N       E                     dE             d eps       ncg     rms          rms(c)
DAV:   1    -0.139569057617E+02    0.56330E-01   -0.21325E-02    16   0.211E+00    0.347E-02
DAV:   2    -0.139571332147E+02   -0.22745E-03   -0.15174E-03    32   0.398E-01    0.206E-02
DAV:   3    -0.139571858197E+02   -0.52605E-04   -0.30191E-06    16   0.154E-02
  675 T=  1235. E= -.13637860E+02 F= -.13957186E+02 E0= -.13957186E+02  EK= 0.31933E+00 SP= 0.00E+00 SK= 0.00E+00
       N       E                     dE             d eps       ncg     rms          rms(c)
DAV:   1    -0.139877773661E+02   -0.30644E-01   -0.19451E-02    24   0.129E+00    0.398E-02
DAV:   2    -0.139878285128E+02   -0.51147E-04   -0.44599E-04    24   0.217E-01
  676 T=  1345. E= -.13640103E+02 F= -.13987829E+02 E0= -.13987829E+02  EK= 0.34773E+00 SP= 0.00E+00 SK= 0.00E+00
       N       E                     dE             d eps       ncg     rms          rms(c)
DAV:   1    -0.140738311566E+02   -0.86054E-01   -0.45758E-02    24   0.136E+00    0.541E-02
DAV:   2    -0.140739227672E+02   -0.91611E-04   -0.58020E-04    16   0.265E-01
  677 T=  1661. E= -.13644534E+02 F= -.14073923E+02 E0= -.14073923E+02  EK= 0.42939E+00 SP= 0.00E+00 SK= 0.00E+00
       N       E                     dE             d eps       ncg     rms          rms(c)
DAV:   1    -0.141484955474E+02   -0.74664E-01   -0.77652E-02    16   0.179E+00    0.752E-02
DAV:   2    -0.141486256991E+02   -0.13015E-03   -0.13376E-03    32   0.421E-01    0.389E-02
DAV:   3    -0.141486646387E+02   -0.38940E-04   -0.62838E-06    16   0.241E-02
  678 T=  1940. E= -.13647164E+02 F= -.14148665E+02 E0= -.14148665E+02  EK= 0.50150E+00 SP= 0.00E+00 SK= 0.00E+00
       N       E                     dE             d eps       ncg     rms          rms(c)
DAV:   1    -0.141689282405E+02   -0.20303E-01   -0.96931E-02    16   0.204E+00    0.624E-02
DAV:   2    -0.141690661190E+02   -0.13788E-03   -0.18487E-03    32   0.496E-01    0.202E-02
DAV:   3    -0.141690852686E+02   -0.19150E-04   -0.11158E-05    16   0.266E-02
  679 T=  2019. E= -.13647048E+02 F= -.14169085E+02 E0= -.14169085E+02  EK= 0.52204E+00 SP= 0.00E+00 SK= 0.00E+00
       N       E                     dE             d eps       ncg     rms          rms(c)
DAV:   1    -0.141332276851E+02    0.35838E-01   -0.94720E-02    24   0.197E+00    0.612E-02
DAV:   2    -0.141333314937E+02   -0.10381E-03   -0.16442E-03    16   0.444E-01    0.224E-02
DAV:   3    -0.141333461279E+02   -0.14634E-04   -0.18274E-05    32   0.434E-02
  680 T=  1888. E= -.13645337E+02 F= -.14133346E+02 E0= -.14133346E+02  EK= 0.48801E+00 SP= 0.00E+00 SK= 0.00E+00
       N       E                     dE             d eps       ncg     rms          rms(c)
DAV:   1    -0.140646260071E+02    0.68705E-01   -0.82362E-02    32   0.166E+00    0.222E-02
DAV:   2    -0.140647158596E+02   -0.89852E-04   -0.91987E-04    16   0.298E-01
  681 T=  1630. E= -.13643413E+02 F= -.14064716E+02 E0= -.14064716E+02  EK= 0.42130E+00 SP= 0.00E+00 SK= 0.00E+00
       N       E                     dE             d eps       ncg     rms          rms(c)
DAV:   1    -0.139914502510E+02    0.73176E-01   -0.67449E-02    24   0.158E+00    0.589E-02
DAV:   2    -0.139915962712E+02   -0.14602E-03   -0.14418E-03    32   0.342E-01    0.449E-02
DAV:   3    -0.139916311591E+02   -0.34888E-04   -0.62288E-05    16   0.616E-02
  682 T=  1353. E= -.13641829E+02 F= -.13991631E+02 E0= -.13991631E+02  EK= 0.34980E+00 SP= 0.00E+00 SK= 0.00E+00
       N       E                     dE             d eps       ncg     rms          rms(c)
DAV:   1    -0.139377236022E+02    0.53873E-01   -0.40848E-02    32   0.119E+00    0.350E-02
DAV:   2    -0.139377725755E+02   -0.48973E-04   -0.47999E-04    16   0.221E-01
  683 T=  1149. E= -.13640838E+02 F= -.13937773E+02 E0= -.13937773E+02  EK= 0.29693E+00 SP= 0.00E+00 SK= 0.00E+00
       N       E                     dE             d eps       ncg     rms          rms(c)
DAV:   1    -0.139181301568E+02    0.19593E-01   -0.17097E-02    16   0.798E-01    0.314E-02
DAV:   2    -0.139181723345E+02   -0.42178E-04   -0.47119E-04    32   0.194E-01
  684 T=  1074. E= -.13640438E+02 F= -.13918172E+02 E0= -.13918172E+02  EK= 0.27773E+00 SP= 0.00E+00 SK= 0.00E+00
       N       E                     dE             d eps       ncg     rms          rms(c)
DAV:   1    -0.139386270372E+02   -0.20497E-01   -0.90557E-03    16   0.697E-01    0.324E-02
DAV:   2    -0.139386625744E+02   -0.35537E-04   -0.40394E-04    32   0.198E-01
  685 T=  1153. E= -.13640578E+02 F= -.13938663E+02 E0= -.13938663E+02  EK= 0.29808E+00 SP= 0.00E+00 SK= 0.00E+00
       N       E                     dE             d eps       ncg     rms          rms(c)
DAV:   1    -0.139961260676E+02   -0.57499E-01   -0.10763E-02    16   0.927E-01    0.168E-02
DAV:   2    -0.139961826422E+02   -0.56575E-04   -0.37798E-04    32   0.193E-01
  686 T=  1373. E= -.13641301E+02 F= -.13996183E+02 E0= -.13996183E+02  EK= 0.35488E+00 SP= 0.00E+00 SK= 0.00E+00
       N       E                     dE             d eps       ncg     rms          rms(c)
DAV:   1    -0.140782916807E+02   -0.82166E-01   -0.21501E-02    16   0.128E+00    0.231E-02
DAV:   2    -0.140783883358E+02   -0.96655E-04   -0.74814E-04    32   0.247E-01
  687 T=  1686. E= -.13642625E+02 F= -.14078388E+02 E0= -.14078388E+02  EK= 0.43576E+00 SP= 0.00E+00 SK= 0.00E+00
       N       E                     dE             d eps       ncg     rms          rms(c)
DAV:   1    -0.141634207925E+02   -0.85129E-01   -0.39325E-02    16   0.167E+00    0.301E-02
DAV:   2    -0.141635442237E+02   -0.12343E-03   -0.91508E-04    32   0.349E-01    0.328E-02
DAV:   3    -0.141635456959E+02   -0.14723E-05   -0.72010E-07    16   0.890E-03
  688 T=  2008. E= -.13644493E+02 F= -.14163546E+02 E0= -.14163546E+02  EK= 0.51905E+00 SP= 0.00E+00 SK= 0.00E+00
       N       E                     dE             d eps       ncg     rms          rms(c)
DAV:   1    -0.142219047554E+02   -0.58361E-01   -0.55515E-02    24   0.199E+00    0.193E-02
DAV:   2    -0.142220330756E+02   -0.12832E-03   -0.11779E-03    16   0.398E-01    0.191E-02
DAV:   3    -0.142220400251E+02   -0.69495E-05   -0.61608E-06    24   0.260E-02
  689 T=  2226. E= -.13646638E+02 F= -.14222040E+02 E0= -.14222040E+02  EK= 0.57540E+00 SP= 0.00E+00 SK= 0.00E+00
       N       E                     dE             d eps       ncg     rms          rms(c)
DAV:   1    -0.142228268793E+02   -0.79380E-03   -0.63220E-02    16   0.224E+00    0.263E-02
DAV:   2    -0.142231594847E+02   -0.33261E-03   -0.32195E-03    24   0.575E-01    0.358E-02
DAV:   3    -0.142231576679E+02    0.18168E-05   -0.12748E-05    32   0.273E-02
  690 T=  2226. E= -.13647706E+02 F= -.14223158E+02 E0= -.14223158E+02  EK= 0.57545E+00 SP= 0.00E+00 SK= 0.00E+00
       N       E                     dE             d eps       ncg     rms          rms(c)
DAV:   1    -0.141526953508E+02    0.70464E-01   -0.84002E-02    16   0.311E+00    0.579E-02
DAV:   2    -0.141533212718E+02   -0.62592E-03   -0.63675E-03    32   0.738E-01    0.723E-02
DAV:   3    -0.141533028526E+02    0.18419E-04   -0.15085E-05    32   0.370E-02
  691 T=  1963. E= -.13645852E+02 F= -.14153303E+02 E0= -.14153303E+02  EK= 0.50745E+00 SP= 0.00E+00 SK= 0.00E+00
       N       E                     dE             d eps       ncg     rms          rms(c)
DAV:   1    -0.140405297132E+02    0.11279E+00   -0.30816E-01    16   0.444E+00    0.151E-01
DAV:   2    -0.140407658642E+02   -0.23615E-03   -0.53328E-03    24   0.739E-01    0.643E-02
DAV:   3    -0.140408036710E+02   -0.37807E-04   -0.10256E-04    16   0.969E-02
  692 T=  1547. E= -.13640812E+02 F= -.14040804E+02 E0= -.14040804E+02  EK= 0.39999E+00 SP= 0.00E+00 SK= 0.00E+00
       N       E                     dE             d eps       ncg     rms          rms(c)
DAV:   1    -0.139593642031E+02    0.81402E-01   -0.20285E-02    16   0.183E+00    0.142E-01
DAV:   2    -0.139595627902E+02   -0.19859E-03   -0.20521E-03    32   0.464E-01    0.694E-02
DAV:   3    -0.139597492940E+02   -0.18650E-03   -0.65587E-05    32   0.803E-02    0.231E-02
DAV:   4    -0.139598646745E+02   -0.11538E-03   -0.27018E-05    24   0.410E-02    0.428E-03
DAV:   5    -0.139598846555E+02   -0.19981E-04   -0.13532E-06    32   0.973E-03
  693 T=  1251. E= -.13636479E+02 F= -.13959885E+02 E0= -.13959885E+02  EK= 0.32341E+00 SP= 0.00E+00 SK= 0.00E+00
       N       E                     dE             d eps       ncg     rms          rms(c)
DAV:   1    -0.139735471056E+02   -0.13682E-01   -0.10107E-02    32   0.106E+00    0.307E-02
DAV:   2    -0.139736569444E+02   -0.10984E-03   -0.55420E-04    16   0.215E-01    0.140E-02
DAV:   3    -0.139736934837E+02   -0.36539E-04   -0.67973E-06    32   0.241E-02
  694 T=  1300. E= -.13637626E+02 F= -.13973693E+02 E0= -.13973693E+02  EK= 0.33607E+00 SP= 0.00E+00 SK= 0.00E+00
       N       E                     dE             d eps       ncg     rms          rms(c)
DAV:   1    -0.140653104027E+02   -0.91653E-01   -0.31560E-02    16   0.129E+00    0.270E-02
DAV:   2    -0.140654216425E+02   -0.11124E-03   -0.65752E-04    32   0.287E-01    0.164E-02
DAV:   3    -0.140654545174E+02   -0.32875E-04   -0.50588E-06    16   0.168E-02
  695 T=  1635. E= -.13642758E+02 F= -.14065455E+02 E0= -.14065455E+02  EK= 0.42270E+00 SP= 0.00E+00 SK= 0.00E+00
       N       E                     dE             d eps       ncg     rms          rms(c)
DAV:   1    -0.141580278352E+02   -0.92606E-01   -0.66276E-02    16   0.187E+00    0.505E-02
DAV:   2    -0.141581222034E+02   -0.94368E-04   -0.13337E-03    32   0.411E-01    0.189E-02
DAV:   3    -0.141581285177E+02   -0.63143E-05   -0.26252E-06    16   0.145E-02
  696 T=  1979. E= -.13646525E+02 F= -.14158129E+02 E0= -.14158129E+02  EK= 0.51160E+00 SP= 0.00E+00 SK= 0.00E+00
       N       E                     dE             d eps       ncg     rms          rms(c)
DAV:   1    -0.141912428929E+02   -0.33121E-01   -0.91829E-02    16   0.214E+00    0.576E-02
DAV:   2    -0.141913904001E+02   -0.14751E-03   -0.17755E-03    32   0.487E-01    0.240E-02
DAV:   3    -0.141914012445E+02   -0.10844E-04   -0.11401E-05    32   0.287E-02
  697 T=  2107. E= -.13646699E+02 F= -.14191401E+02 E0= -.14191401E+02  EK= 0.54470E+00 SP= 0.00E+00 SK= 0.00E+00
       N       E                     dE             d eps       ncg     rms          rms(c)
DAV:   1    -0.141561748135E+02    0.35216E-01   -0.96365E-02    16   0.218E+00    0.650E-02
DAV:   2    -0.141563300467E+02   -0.15523E-03   -0.21048E-03    32   0.522E-01    0.269E-02
DAV:   3    -0.141563354402E+02   -0.53935E-05   -0.21079E-05    32   0.364E-02
  698 T=  1979. E= -.13644831E+02 F= -.14156335E+02 E0= -.14156335E+02  EK= 0.51150E+00 SP= 0.00E+00 SK= 0.00E+00
       N       E                     dE             d eps       ncg     rms          rms(c)
DAV:   1    -0.140777526561E+02    0.78577E-01   -0.80646E-02    32   0.169E+00    0.235E-02
DAV:   2    -0.140777992340E+02   -0.46578E-04   -0.56910E-04    16   0.239E-01
  699 T=  1683. E= -.13642610E+02 F= -.14077799E+02 E0= -.14077799E+02  EK= 0.43519E+00 SP= 0.00E+00 SK= 0.00E+00
       N       E                     dE             d eps       ncg     rms          rms(c)
DAV:   1    -0.139886593292E+02    0.89093E-01   -0.72000E-02    16   0.180E+00    0.377E-02
DAV:   2    -0.139888877683E+02   -0.22844E-03   -0.20345E-03    32   0.421E-01    0.442E-02
DAV:   3    -0.139888853877E+02    0.23806E-05   -0.12050E-06    16   0.106E-02
  700 T=  1347. E= -.13640630E+02 F= -.13988885E+02 E0= -.13988885E+02  EK= 0.34826E+00 SP= 0.00E+00 SK= 0.00E+00
       N       E                     dE             d eps       ncg     rms          rms(c)
DAV:   1    -0.139173647442E+02    0.71523E-01   -0.37320E-02    16   0.128E+00    0.404E-02
DAV:   2    -0.139174764075E+02   -0.11166E-03   -0.10250E-03    24   0.296E-01    0.382E-02
DAV:   3    -0.139174837774E+02   -0.73698E-05   -0.13783E-05    16   0.327E-02
  701 T=  1076. E= -.13639347E+02 F= -.13917484E+02 E0= -.13917484E+02  EK= 0.27814E+00 SP= 0.00E+00 SK= 0.00E+00
       N       E                     dE             d eps       ncg     rms          rms(c)
DAV:   1    -0.138817958441E+02    0.35681E-01   -0.18257E-02    16   0.939E-01    0.239E-02
DAV:   2    -0.138818541890E+02   -0.58345E-04   -0.41786E-04    24   0.187E-01
  702 T=   940. E= -.13638785E+02 F= -.13881854E+02 E0= -.13881854E+02  EK= 0.24307E+00 SP= 0.00E+00 SK= 0.00E+00
       N       E                     dE             d eps       ncg     rms          rms(c)
DAV:   1    -0.138901365703E+02   -0.83407E-02   -0.63145E-03    16   0.784E-01    0.268E-02
DAV:   2    -0.138902012618E+02   -0.64691E-04   -0.39519E-04    32   0.205E-01
  703 T=   973. E= -.13638773E+02 F= -.13890201E+02 E0= -.13890201E+02  EK= 0.25143E+00 SP= 0.00E+00 SK= 0.00E+00
       N       E                     dE             d eps       ncg     rms          rms(c)
DAV:   1    -0.139411977307E+02   -0.51061E-01   -0.78760E-03    16   0.994E-01    0.227E-02
DAV:   2    -0.139412700651E+02   -0.72334E-04   -0.40712E-04    32   0.221E-01
  704 T=  1167. E= -.13639480E+02 F= -.13941270E+02 E0= -.13941270E+02  EK= 0.30179E+00 SP= 0.00E+00 SK= 0.00E+00
       N       E                     dE             d eps       ncg     rms          rms(c)
DAV:   1    -0.140236366834E+02   -0.82439E-01   -0.19849E-02    16   0.135E+00    0.236E-02
DAV:   2    -0.140237172293E+02   -0.80546E-04   -0.67892E-04    16   0.291E-01
  705 T=  1481. E= -.13640893E+02 F= -.14023717E+02 E0= -.14023717E+02  EK= 0.38282E+00 SP= 0.00E+00 SK= 0.00E+00
       N       E                     dE             d eps       ncg     rms          rms(c)
DAV:   1    -0.141159585476E+02   -0.92322E-01   -0.39113E-02    16   0.174E+00    0.272E-02
DAV:   2    -0.141161032385E+02   -0.14469E-03   -0.11632E-03    32   0.388E-01    0.300E-02
DAV:   3    -0.141161112632E+02   -0.80247E-05   -0.21395E-06    16   0.136E-02
  706 T=  1831. E= -.13642783E+02 F= -.14116111E+02 E0= -.14116111E+02  EK= 0.47333E+00 SP= 0.00E+00 SK= 0.00E+00
       N       E                     dE             d eps       ncg     rms          rms(c)
DAV:   1    -0.141886972913E+02   -0.72594E-01   -0.56773E-02    16   0.207E+00    0.192E-02
DAV:   2    -0.141889317156E+02   -0.23442E-03   -0.20364E-03    32   0.492E-01    0.257E-02
DAV:   3    -0.141889370405E+02   -0.53249E-05   -0.50245E-06    16   0.165E-02
  707 T=  2105. E= -.13644781E+02 F= -.14188937E+02 E0= -.14188937E+02  EK= 0.54416E+00 SP= 0.00E+00 SK= 0.00E+00
       N       E                     dE             d eps       ncg     rms          rms(c)
DAV:   1    -0.142113860355E+02   -0.22454E-01   -0.69751E-02    32   0.236E+00    0.276E-02
DAV:   2    -0.142115451921E+02   -0.15916E-03   -0.13540E-03    16   0.399E-01    0.270E-02
DAV:   3    -0.142115555956E+02   -0.10404E-04   -0.60170E-06    32   0.262E-02
  708 T=  2188. E= -.13645916E+02 F= -.14211556E+02 E0= -.14211556E+02  EK= 0.56564E+00 SP= 0.00E+00 SK= 0.00E+00
       N       E                     dE             d eps       ncg     rms          rms(c)
DAV:   1    -0.141682606276E+02    0.43285E-01   -0.77002E-02    16   0.282E+00    0.402E-02
DAV:   2    -0.141687058661E+02   -0.44524E-03   -0.43968E-03    32   0.669E-01    0.462E-02
DAV:   3    -0.141687004388E+02    0.54273E-05   -0.10804E-05    16   0.258E-02
  709 T=  2027. E= -.13644558E+02 F= -.14168700E+02 E0= -.14168700E+02  EK= 0.52414E+00 SP= 0.00E+00 SK= 0.00E+00
       N       E                     dE             d eps       ncg     rms          rms(c)
DAV:   1    -0.140824352515E+02    0.86271E-01   -0.98081E-02    16   0.368E+00    0.102E-01
DAV:   2    -0.140827017284E+02   -0.26648E-03   -0.42297E-03    32   0.680E-01    0.383E-02
DAV:   3    -0.140827143562E+02   -0.12628E-04   -0.12608E-05    24   0.380E-02
  710 T=  1711. E= -.13640450E+02 F= -.14082714E+02 E0= -.14082714E+02  EK= 0.44226E+00 SP= 0.00E+00 SK= 0.00E+00
       N       E                     dE             d eps       ncg     rms          rms(c)
DAV:   1    -0.140144923550E+02    0.68209E-01   -0.28643E-02    16   0.227E+00    0.812E-02
DAV:   2    -0.140147082010E+02   -0.21585E-03   -0.17866E-03    32   0.447E-01    0.480E-02
DAV:   3    -0.140147656805E+02   -0.57479E-04   -0.28731E-05    16   0.429E-02
  711 T=  1462. E= -.13636710E+02 F= -.14014766E+02 E0= -.14014766E+02  EK= 0.37806E+00 SP= 0.00E+00 SK= 0.00E+00
       N       E                     dE             d eps       ncg     rms          rms(c)
DAV:   1    -0.140185204956E+02   -0.38123E-02   -0.12991E-02    16   0.138E+00    0.442E-02
DAV:   2    -0.140185858943E+02   -0.65399E-04   -0.77227E-04    24   0.281E-01
  712 T=  1475. E= -.13637297E+02 F= -.14018586E+02 E0= -.14018586E+02  EK= 0.38129E+00 SP= 0.00E+00 SK= 0.00E+00
       N       E                     dE             d eps       ncg     rms          rms(c)
DAV:   1    -0.140859794439E+02   -0.67459E-01   -0.28474E-02    24   0.129E+00    0.587E-02
DAV:   2    -0.140860580787E+02   -0.78635E-04   -0.62444E-04    24   0.255E-01
  713 T=  1721. E= -.13641242E+02 F= -.14086058E+02 E0= -.14086058E+02  EK= 0.44482E+00 SP= 0.00E+00 SK= 0.00E+00
       N       E                     dE             d eps       ncg     rms          rms(c)
DAV:   1    -0.141588476610E+02   -0.72868E-01   -0.60114E-02    16   0.173E+00    0.681E-02
DAV:   2    -0.141589659929E+02   -0.11833E-03   -0.11897E-03    24   0.388E-01    0.414E-02
DAV:   3    -0.141589896482E+02   -0.23655E-04   -0.13118E-05    24   0.327E-02
  714 T=  1990. E= -.13644485E+02 F= -.14158990E+02 E0= -.14158990E+02  EK= 0.51451E+00 SP= 0.00E+00 SK= 0.00E+00
       N       E                     dE             d eps       ncg     rms          rms(c)
DAV:   1    -0.141866909806E+02   -0.27725E-01   -0.85539E-02    16   0.205E+00    0.548E-02
DAV:   2    -0.141868311551E+02   -0.14017E-03   -0.14761E-03    24   0.418E-01    0.225E-02
DAV:   3    -0.141868451840E+02   -0.14029E-04   -0.12117E-05    24   0.288E-02
  715 T=  2096. E= -.13645043E+02 F= -.14186845E+02 E0= -.14186845E+02  EK= 0.54180E+00 SP= 0.00E+00 SK= 0.00E+00
       N       E                     dE             d eps       ncg     rms          rms(c)
DAV:   1    -0.141572330532E+02    0.29598E-01   -0.92289E-02    16   0.211E+00    0.547E-02
DAV:   2    -0.141573571671E+02   -0.12411E-03   -0.15846E-03    24   0.439E-01    0.257E-02
DAV:   3    -0.141573623604E+02   -0.51932E-05   -0.13846E-05    24   0.319E-02
  716 T=  1987. E= -.13643790E+02 F= -.14157362E+02 E0= -.14157362E+02  EK= 0.51357E+00 SP= 0.00E+00 SK= 0.00E+00
       N       E                     dE             d eps       ncg     rms          rms(c)
DAV:   1    -0.140867752114E+02    0.70582E-01   -0.78985E-02    24   0.183E+00    0.342E-02
DAV:   2    -0.140868502649E+02   -0.75053E-04   -0.94914E-04    24   0.332E-01
  717 T=  1721. E= -.13641969E+02 F= -.14086850E+02 E0= -.14086850E+02  EK= 0.44488E+00 SP= 0.00E+00 SK= 0.00E+00
       N       E                     dE             d eps       ncg     rms          rms(c)
DAV:   1    -0.140017964557E+02    0.84979E-01   -0.69445E-02    24   0.176E+00    0.287E-02
DAV:   2    -0.140019217797E+02   -0.12532E-03   -0.11456E-03    24   0.320E-01    0.267E-02
DAV:   3    -0.140019268631E+02   -0.50834E-05   -0.76229E-06    24   0.233E-02
  718 T=  1399. E= -.13640282E+02 F= -.14001927E+02 E0= -.14001927E+02  EK= 0.36164E+00 SP= 0.00E+00 SK= 0.00E+00
       N       E                     dE             d eps       ncg     rms          rms(c)
DAV:   1    -0.139276046374E+02    0.74317E-01   -0.44050E-02    24   0.148E+00    0.455E-02
DAV:   2    -0.139276766771E+02   -0.72040E-04   -0.74310E-04    16   0.259E-01
  719 T=  1117. E= -.13639029E+02 F= -.13927677E+02 E0= -.13927677E+02  EK= 0.28865E+00 SP= 0.00E+00 SK= 0.00E+00
       N       E                     dE             d eps       ncg     rms          rms(c)
DAV:   1    -0.138823891803E+02    0.45215E-01   -0.20136E-02    24   0.107E+00    0.343E-02
DAV:   2    -0.138824333065E+02   -0.44126E-04   -0.39077E-04    24   0.193E-01
  720 T=   944. E= -.13638274E+02 F= -.13882433E+02 E0= -.13882433E+02  EK= 0.24416E+00 SP= 0.00E+00 SK= 0.00E+00
       N       E                     dE             d eps       ncg     rms          rms(c)
DAV:   1    -0.138766081668E+02    0.57810E-02   -0.92246E-03    16   0.791E-01    0.328E-02
DAV:   2    -0.138766348841E+02   -0.26717E-04   -0.30326E-04    24   0.170E-01
  721 T=   923. E= -.13638121E+02 F= -.13876635E+02 E0= -.13876635E+02  EK= 0.23851E+00 SP= 0.00E+00 SK= 0.00E+00
       N       E                     dE             d eps       ncg     rms          rms(c)
DAV:   1    -0.139122089199E+02   -0.35601E-01   -0.91968E-03    16   0.770E-01    0.137E-02
DAV:   2    -0.139122466587E+02   -0.37739E-04   -0.28433E-04    24   0.185E-01
  722 T=  1059. E= -.13638556E+02 F= -.13912247E+02 E0= -.13912247E+02  EK= 0.27369E+00 SP= 0.00E+00 SK= 0.00E+00
       N       E                     dE             d eps       ncg     rms          rms(c)
DAV:   1    -0.139822433429E+02   -0.70034E-01   -0.21007E-02    16   0.104E+00    0.163E-02
DAV:   2    -0.139822940814E+02   -0.50738E-04   -0.35015E-04    24   0.208E-01
  723 T=  1326. E= -.13639566E+02 F= -.13982294E+02 E0= -.13982294E+02  EK= 0.34273E+00 SP= 0.00E+00 SK= 0.00E+00
       N       E                     dE             d eps       ncg     rms          rms(c)
DAV:   1    -0.140702655047E+02   -0.88022E-01   -0.42817E-02    16   0.142E+00    0.186E-02
DAV:   2    -0.140703679286E+02   -0.10242E-03   -0.75196E-04    24   0.305E-01    0.244E-02
DAV:   3    -0.140703594728E+02    0.84557E-05   -0.20716E-06    16   0.127E-02
  724 T=  1660. E= -.13641119E+02 F= -.14070359E+02 E0= -.14070359E+02  EK= 0.42924E+00 SP= 0.00E+00 SK= 0.00E+00
       N       E                     dE             d eps       ncg     rms          rms(c)
DAV:   1    -0.141506635378E+02   -0.80296E-01   -0.66760E-02    16   0.175E+00    0.183E-02
DAV:   2    -0.141508033777E+02   -0.13984E-03   -0.12852E-03    24   0.406E-01    0.150E-02
DAV:   3    -0.141508087603E+02   -0.53825E-05   -0.45594E-06    24   0.160E-02
  725 T=  1963. E= -.13643219E+02 F= -.14150809E+02 E0= -.14150809E+02  EK= 0.50759E+00 SP= 0.00E+00 SK= 0.00E+00
       N       E                     dE             d eps       ncg     rms          rms(c)
DAV:   1    -0.141918193022E+02   -0.41016E-01   -0.87272E-02    16   0.205E+00    0.148E-02
DAV:   2    -0.141920378913E+02   -0.21859E-03   -0.20228E-03    16   0.492E-01    0.279E-02
DAV:   3    -0.141920377266E+02    0.16470E-06   -0.81830E-06    24   0.301E-02
  726 T=  2116. E= -.13644939E+02 F= -.14192038E+02 E0= -.14192038E+02  EK= 0.54710E+00 SP= 0.00E+00 SK= 0.00E+00
       N       E                     dE             d eps       ncg     rms          rms(c)
DAV:   1    -0.141687672441E+02    0.23271E-01   -0.89454E-02    16   0.219E+00    0.277E-02
DAV:   2    -0.141690589424E+02   -0.29170E-03   -0.27648E-03    24   0.557E-01    0.423E-02
DAV:   3    -0.141690560471E+02    0.28952E-05   -0.36512E-06    16   0.187E-02
  727 T=  2028. E= -.13644804E+02 F= -.14169056E+02 E0= -.14169056E+02  EK= 0.52425E+00 SP= 0.00E+00 SK= 0.00E+00
       N       E                     dE             d eps       ncg     rms          rms(c)
DAV:   1    -0.140851944589E+02    0.83864E-01   -0.69406E-02    16   0.206E+00    0.557E-02
DAV:   2    -0.140853349271E+02   -0.14047E-03   -0.19409E-03    24   0.490E-01    0.270E-02
DAV:   3    -0.140853346742E+02    0.25288E-06   -0.81549E-06    16   0.308E-02
  728 T=  1716. E= -.13641730E+02 F= -.14085335E+02 E0= -.14085335E+02  EK= 0.44360E+00 SP= 0.00E+00 SK= 0.00E+00
       N       E                     dE             d eps       ncg     rms          rms(c)
DAV:   1    -0.139912239893E+02    0.94111E-01   -0.45719E-02    16   0.199E+00    0.119E-01
DAV:   2    -0.139913155786E+02   -0.91589E-04   -0.18579E-03    24   0.447E-01    0.508E-02
DAV:   3    -0.139913860010E+02   -0.70422E-04   -0.23537E-05    24   0.464E-02
  729 T=  1372. E= -.13636738E+02 F= -.13991386E+02 E0= -.13991386E+02  EK= 0.35465E+00 SP= 0.00E+00 SK= 0.00E+00
       N       E                     dE             d eps       ncg     rms          rms(c)
DAV:   1    -0.139621251947E+02    0.29190E-01   -0.14706E-02    16   0.126E+00    0.380E-02
DAV:   2    -0.139621601120E+02   -0.34917E-04   -0.49229E-04    24   0.215E-01
  730 T=  1266. E= -.13634777E+02 F= -.13962160E+02 E0= -.13962160E+02  EK= 0.32738E+00 SP= 0.00E+00 SK= 0.00E+00
       N       E                     dE             d eps       ncg     rms          rms(c)
DAV:   1    -0.140259496189E+02   -0.63824E-01   -0.12073E-02    16   0.117E+00    0.208E-02
DAV:   2    -0.140260225079E+02   -0.72889E-04   -0.57955E-04    24   0.247E-01
  731 T=  1501. E= -.13638092E+02 F= -.14026023E+02 E0= -.14026023E+02  EK= 0.38793E+00 SP= 0.00E+00 SK= 0.00E+00
       N       E                     dE             d eps       ncg     rms          rms(c)
DAV:   1    -0.141325458200E+02   -0.10660E+00   -0.36985E-02    32   0.178E+00    0.283E-02
DAV:   2    -0.141326674843E+02   -0.12166E-03   -0.54586E-04    16   0.273E-01    0.247E-02
DAV:   3    -0.141327185239E+02   -0.51040E-04   -0.67507E-06    32   0.240E-02
  732 T=  1895. E= -.13642763E+02 F= -.14132719E+02 E0= -.14132719E+02  EK= 0.48996E+00 SP= 0.00E+00 SK= 0.00E+00
       N       E                     dE             d eps       ncg     rms          rms(c)
DAV:   1    -0.142078792264E+02   -0.75212E-01   -0.62415E-02    16   0.223E+00    0.773E-02
DAV:   2    -0.142079976350E+02   -0.11841E-03   -0.17915E-03    32   0.489E-01    0.342E-02
DAV:   3    -0.142080130552E+02   -0.15420E-04   -0.19915E-05    16   0.372E-02
  733 T=  2178. E= -.13644901E+02 F= -.14208013E+02 E0= -.14208013E+02  EK= 0.56311E+00 SP= 0.00E+00 SK= 0.00E+00
       N       E                     dE             d eps       ncg     rms          rms(c)
DAV:   1    -0.142146237590E+02   -0.66261E-02   -0.78523E-02    16   0.244E+00    0.514E-02
DAV:   2    -0.142148348534E+02   -0.21109E-03   -0.22454E-03    32   0.540E-01    0.298E-02
DAV:   3    -0.142148465052E+02   -0.11652E-04   -0.14303E-05    16   0.302E-02
  734 T=  2208. E= -.13644091E+02 F= -.14214847E+02 E0= -.14214847E+02  EK= 0.57076E+00 SP= 0.00E+00 SK= 0.00E+00
       N       E                     dE             d eps       ncg     rms          rms(c)
DAV:   1    -0.141602033131E+02    0.54632E-01   -0.84064E-02    16   0.275E+00    0.755E-02
DAV:   2    -0.141604408461E+02   -0.23753E-03   -0.29892E-03    24   0.598E-01    0.379E-02
DAV:   3    -0.141604472803E+02   -0.64342E-05   -0.22821E-05    16   0.424E-02
  735 T=  2005. E= -.13642095E+02 F= -.14160447E+02 E0= -.14160447E+02  EK= 0.51835E+00 SP= 0.00E+00 SK= 0.00E+00
       N       E                     dE             d eps       ncg     rms          rms(c)
DAV:   1    -0.140730217767E+02    0.87419E-01   -0.11633E-01    24   0.323E+00    0.663E-02
DAV:   2    -0.140733724247E+02   -0.35065E-03   -0.36550E-03    16   0.582E-01    0.532E-02
DAV:   3    -0.140733805665E+02   -0.81417E-05   -0.74480E-05    24   0.737E-02
  736 T=  1676. E= -.13640041E+02 F= -.14073381E+02 E0= -.14073381E+02  EK= 0.43334E+00 SP= 0.00E+00 SK= 0.00E+00
       N       E                     dE             d eps       ncg     rms          rms(c)
DAV:   1    -0.139844587446E+02    0.88914E-01   -0.49051E-02    24   0.195E+00    0.673E-02
DAV:   2    -0.139846546513E+02   -0.19591E-03   -0.15152E-03    16   0.384E-01    0.515E-02
DAV:   3    -0.139847459556E+02   -0.91304E-04   -0.16794E-04    32   0.100E-01
  737 T=  1340. E= -.13638438E+02 F= -.13984746E+02 E0= -.13984746E+02  EK= 0.34631E+00 SP= 0.00E+00 SK= 0.00E+00
       N       E                     dE             d eps       ncg     rms          rms(c)
DAV:   1    -0.139192620287E+02    0.65393E-01   -0.21021E-02    24   0.139E+00    0.272E-02
DAV:   2    -0.139193565705E+02   -0.94542E-04   -0.74992E-04    24   0.269E-01
  738 T=  1090. E= -.13637496E+02 F= -.13919357E+02 E0= -.13919357E+02  EK= 0.28186E+00 SP= 0.00E+00 SK= 0.00E+00
       N       E                     dE             d eps       ncg     rms          rms(c)
DAV:   1    -0.138923903892E+02    0.26872E-01   -0.75468E-03    16   0.106E+00    0.370E-02
DAV:   2    -0.138924274586E+02   -0.37069E-04   -0.46445E-04    24   0.202E-01
  739 T=   988. E= -.13637126E+02 F= -.13892427E+02 E0= -.13892427E+02  EK= 0.25530E+00 SP= 0.00E+00 SK= 0.00E+00
       N       E                     dE             d eps       ncg     rms          rms(c)
DAV:   1    -0.139095071894E+02   -0.17117E-01   -0.79972E-03    16   0.963E-01    0.257E-02
DAV:   2    -0.139095774833E+02   -0.70294E-04   -0.50286E-04    24   0.232E-01
  740 T=  1053. E= -.13637388E+02 F= -.13909577E+02 E0= -.13909577E+02  EK= 0.27219E+00 SP= 0.00E+00 SK= 0.00E+00
       N       E                     dE             d eps       ncg     rms          rms(c)
DAV:   1    -0.139662154509E+02   -0.56708E-01   -0.20828E-02    24   0.108E+00    0.171E-02
DAV:   2    -0.139662945262E+02   -0.79075E-04   -0.32261E-04    24   0.193E-01
  741 T=  1269. E= -.13638272E+02 F= -.13966295E+02 E0= -.13966295E+02  EK= 0.32802E+00 SP= 0.00E+00 SK= 0.00E+00
       N       E                     dE             d eps       ncg     rms          rms(c)
DAV:   1    -0.140474809939E+02   -0.81266E-01   -0.43155E-02    16   0.137E+00    0.211E-02
DAV:   2    -0.140476016088E+02   -0.12061E-03   -0.72084E-04    24   0.306E-01    0.200E-02
DAV:   3    -0.140476317211E+02   -0.30112E-04   -0.17789E-06    24   0.136E-02
  742 T=  1577. E= -.13639943E+02 F= -.14047632E+02 E0= -.14047632E+02  EK= 0.40769E+00 SP= 0.00E+00 SK= 0.00E+00
       N       E                     dE             d eps       ncg     rms          rms(c)
DAV:   1    -0.141275387483E+02   -0.79937E-01   -0.68811E-02    24   0.168E+00    0.194E-02
DAV:   2    -0.141277042562E+02   -0.16551E-03   -0.12601E-03    16   0.378E-01    0.153E-02
DAV:   3    -0.141277195196E+02   -0.15263E-04   -0.66640E-06    32   0.238E-02
  743 T=  1878. E= -.13642135E+02 F= -.14127720E+02 E0= -.14127720E+02  EK= 0.48558E+00 SP= 0.00E+00 SK= 0.00E+00
       N       E                     dE             d eps       ncg     rms          rms(c)
DAV:   1    -0.141734960509E+02   -0.45792E-01   -0.86948E-02    16   0.195E+00    0.285E-02
DAV:   2    -0.141738766376E+02   -0.38059E-03   -0.33017E-03    16   0.551E-01    0.406E-02
DAV:   3    -0.141738879749E+02   -0.11337E-04   -0.32514E-05    32   0.515E-02
  744 T=  2050. E= -.13643857E+02 F= -.14173888E+02 E0= -.14173888E+02  EK= 0.53003E+00 SP= 0.00E+00 SK= 0.00E+00
       N       E                     dE             d eps       ncg     rms          rms(c)
DAV:   1    -0.141592991228E+02    0.14578E-01   -0.90926E-02    24   0.207E+00    0.365E-02
DAV:   2    -0.141595219756E+02   -0.22285E-03   -0.17731E-03    16   0.453E-01    0.375E-02
DAV:   3    -0.141595414895E+02   -0.19514E-04   -0.83391E-06    24   0.282E-02
  745 T=  1994. E= -.13643924E+02 F= -.14159541E+02 E0= -.14159541E+02  EK= 0.51562E+00 SP= 0.00E+00 SK= 0.00E+00
       N       E                     dE             d eps       ncg     rms          rms(c)
DAV:   1    -0.140864690549E+02    0.73053E-01   -0.67119E-02    32   0.187E+00    0.553E-02
DAV:   2    -0.140865586006E+02   -0.89546E-04   -0.11763E-03    24   0.348E-01    0.262E-02
DAV:   3    -0.140865740747E+02   -0.15474E-04   -0.57695E-06    16   0.245E-02
  746 T=  1723. E= -.13641026E+02 F= -.14086574E+02 E0= -.14086574E+02  EK= 0.44555E+00 SP= 0.00E+00 SK= 0.00E+00
       N       E                     dE             d eps       ncg     rms          rms(c)
DAV:   1    -0.140026906393E+02    0.83868E-01   -0.54712E-02    24   0.214E+00    0.783E-02
DAV:   2    -0.140028650457E+02   -0.17441E-03   -0.18862E-03    16   0.446E-01    0.293E-02
DAV:   3    -0.140029458699E+02   -0.80824E-04   -0.21517E-05    32   0.419E-02
  747 T=  1419. E= -.13636211E+02 F= -.14002946E+02 E0= -.14002946E+02  EK= 0.36673E+00 SP= 0.00E+00 SK= 0.00E+00
       N       E                     dE             d eps       ncg     rms          rms(c)
DAV:   1    -0.139784240999E+02    0.24441E-01   -0.23488E-02    16   0.155E+00    0.589E-02
DAV:   2    -0.139785145540E+02   -0.90454E-04   -0.13711E-03    24   0.343E-01    0.222E-02
DAV:   3    -0.139785322260E+02   -0.17672E-04   -0.32185E-06    32   0.171E-02
  748 T=  1330. E= -.13634625E+02 F= -.13978532E+02 E0= -.13978532E+02  EK= 0.34391E+00 SP= 0.00E+00 SK= 0.00E+00
       N       E                     dE             d eps       ncg     rms          rms(c)
DAV:   1    -0.140372518461E+02   -0.58737E-01   -0.15557E-02    16   0.137E+00    0.260E-02
DAV:   2    -0.140374218345E+02   -0.16999E-03   -0.11838E-03    24   0.321E-01    0.239E-02
DAV:   3    -0.140374391327E+02   -0.17298E-04   -0.66290E-06    16   0.205E-02
  749 T=  1546. E= -.13637691E+02 F= -.14037439E+02 E0= -.14037439E+02  EK= 0.39975E+00 SP= 0.00E+00 SK= 0.00E+00
       N       E                     dE             d eps       ncg     rms          rms(c)
DAV:   1    -0.141341751845E+02   -0.96753E-01   -0.35764E-02    24   0.180E+00    0.403E-02
DAV:   2    -0.141343351077E+02   -0.15992E-03   -0.12033E-03    16   0.377E-01    0.278E-02
DAV:   3    -0.141343648820E+02   -0.29774E-04   -0.11741E-05    32   0.332E-02
  750 T=  1905. E= -.13641959E+02 F= -.14134365E+02 E0= -.14134365E+02  EK= 0.49241E+00 SP= 0.00E+00 SK= 0.00E+00
       N       E                     dE             d eps       ncg     rms          rms(c)
DAV:   1    -0.142039907803E+02   -0.69656E-01   -0.59788E-02    16   0.217E+00    0.500E-02
DAV:   2    -0.142041296094E+02   -0.13883E-03   -0.16620E-03    32   0.460E-01    0.256E-02
DAV:   3    -0.142041309491E+02   -0.13397E-05   -0.15068E-05    32   0.314E-02
  751 T=  2167. E= -.13643962E+02 F= -.14204131E+02 E0= -.14204131E+02  EK= 0.56017E+00 SP= 0.00E+00 SK= 0.00E+00
       N       E                     dE             d eps       ncg     rms          rms(c)
DAV:   1    -0.142132511519E+02   -0.91215E-02   -0.72572E-02    16   0.230E+00    0.496E-02
DAV:   2    -0.142134479152E+02   -0.19676E-03   -0.19695E-03    32   0.482E-01    0.294E-02
DAV:   3    -0.142134631989E+02   -0.15284E-04   -0.17777E-05    24   0.344E-02
  752 T=  2205. E= -.13643333E+02 F= -.14213463E+02 E0= -.14213463E+02  EK= 0.57013E+00 SP= 0.00E+00 SK= 0.00E+00
       N       E                     dE             d eps       ncg     rms          rms(c)
DAV:   1    -0.141668809169E+02    0.46567E-01   -0.68506E-02    24   0.217E+00    0.403E-02
DAV:   2    -0.141669820686E+02   -0.10115E-03   -0.11363E-03    32   0.350E-01    0.215E-02
DAV:   3    -0.141669871421E+02   -0.50735E-05   -0.90298E-06    24   0.271E-02
  753 T=  2032. E= -.13641726E+02 F= -.14166987E+02 E0= -.14166987E+02  EK= 0.52526E+00 SP= 0.00E+00 SK= 0.00E+00
       N       E                     dE             d eps       ncg     rms          rms(c)
DAV:   1    -0.140877077368E+02    0.79274E-01   -0.53642E-02    16   0.185E+00    0.281E-02
DAV:   2    -0.140878625721E+02   -0.15484E-03   -0.16015E-03    32   0.367E-01    0.240E-02
DAV:   3    -0.140878640479E+02   -0.14758E-05   -0.83291E-06    16   0.210E-02
  754 T=  1733. E= -.13639870E+02 F= -.14087864E+02 E0= -.14087864E+02  EK= 0.44799E+00 SP= 0.00E+00 SK= 0.00E+00
       N       E                     dE             d eps       ncg     rms          rms(c)
DAV:   1    -0.140031312866E+02    0.84731E-01   -0.38597E-02    24   0.173E+00    0.291E-02
DAV:   2    -0.140032724060E+02   -0.14112E-03   -0.11928E-03    16   0.328E-01    0.302E-02
DAV:   3    -0.140032813187E+02   -0.89127E-05   -0.91200E-06    32   0.269E-02
  755 T=  1412. E= -.13638227E+02 F= -.14003281E+02 E0= -.14003281E+02  EK= 0.36505E+00 SP= 0.00E+00 SK= 0.00E+00
       N       E                     dE             d eps       ncg     rms          rms(c)
DAV:   1    -0.139365234848E+02    0.66749E-01   -0.19884E-02    16   0.140E+00    0.301E-02
DAV:   2    -0.139365879295E+02   -0.64445E-04   -0.77720E-04    24   0.257E-01
  756 T=  1158. E= -.13637176E+02 F= -.13936588E+02 E0= -.13936588E+02  EK= 0.29941E+00 SP= 0.00E+00 SK= 0.00E+00
       N       E                     dE             d eps       ncg     rms          rms(c)
DAV:   1    -0.139035112428E+02    0.33012E-01   -0.94154E-03    16   0.107E+00    0.448E-02
DAV:   2    -0.139035483507E+02   -0.37108E-04   -0.44650E-04    32   0.183E-01
  757 T=  1033. E= -.13636623E+02 F= -.13903548E+02 E0= -.13903548E+02  EK= 0.26693E+00 SP= 0.00E+00 SK= 0.00E+00
       N       E                     dE             d eps       ncg     rms          rms(c)
DAV:   1    -0.139117640417E+02   -0.82528E-02   -0.90175E-03    32   0.886E-01    0.259E-02
DAV:   2    -0.139118123345E+02   -0.48293E-04   -0.27703E-04    16   0.176E-01
  758 T=  1064. E= -.13636685E+02 F= -.13911812E+02 E0= -.13911812E+02  EK= 0.27513E+00 SP= 0.00E+00 SK= 0.00E+00
       N       E                     dE             d eps       ncg     rms          rms(c)
DAV:   1    -0.139597637943E+02   -0.48000E-01   -0.19871E-02    16   0.904E-01    0.144E-02
DAV:   2    -0.139598276929E+02   -0.63899E-04   -0.48847E-04    32   0.218E-01
  759 T=  1247. E= -.13637429E+02 F= -.13959828E+02 E0= -.13959828E+02  EK= 0.32240E+00 SP= 0.00E+00 SK= 0.00E+00
       N       E                     dE             d eps       ncg     rms          rms(c)
DAV:   1    -0.140359484265E+02   -0.76185E-01   -0.41843E-02    16   0.116E+00    0.288E-02
DAV:   2    -0.140360453566E+02   -0.96930E-04   -0.88020E-04    32   0.295E-01
  760 T=  1537. E= -.13638806E+02 F= -.14036045E+02 E0= -.14036045E+02  EK= 0.39724E+00 SP= 0.00E+00 SK= 0.00E+00
       N       E                     dE             d eps       ncg     rms          rms(c)
DAV:   1    -0.141185491486E+02   -0.82601E-01   -0.71168E-02    32   0.150E+00    0.281E-02
DAV:   2    -0.141186400234E+02   -0.90875E-04   -0.68246E-04    16   0.269E-01
  761 T=  1849. E= -.13640724E+02 F= -.14118640E+02 E0= -.14118640E+02  EK= 0.47792E+00 SP= 0.00E+00 SK= 0.00E+00
       N       E                     dE             d eps       ncg     rms          rms(c)
DAV:   1    -0.141774356597E+02   -0.58887E-01   -0.97190E-02    32   0.180E+00    0.155E-02
DAV:   2    -0.141775799628E+02   -0.14430E-03   -0.12053E-03    32   0.366E-01    0.160E-02
DAV:   3    -0.141775899745E+02   -0.10012E-04   -0.29888E-06    16   0.141E-02
  762 T=  2069. E= -.13642794E+02 F= -.14177590E+02 E0= -.14177590E+02  EK= 0.53480E+00 SP= 0.00E+00 SK= 0.00E+00
       N       E                     dE             d eps       ncg     rms          rms(c)
DAV:   1    -0.141822509327E+02   -0.46710E-02   -0.10806E-01    16   0.199E+00    0.246E-02
DAV:   2    -0.141825966912E+02   -0.34576E-03   -0.34055E-03    32   0.559E-01    0.424E-02
DAV:   3    -0.141825867787E+02    0.99125E-05   -0.13540E-05    16   0.272E-02
  763 T=  2084. E= -.13643718E+02 F= -.14182587E+02 E0= -.14182587E+02  EK= 0.53887E+00 SP= 0.00E+00 SK= 0.00E+00
       N       E                     dE             d eps       ncg     rms          rms(c)
DAV:   1    -0.141203091319E+02    0.62288E-01   -0.98312E-02    32   0.190E+00    0.440E-02
DAV:   2    -0.141204175864E+02   -0.10845E-03   -0.10492E-03    24   0.331E-01    0.355E-02
DAV:   3    -0.141204390485E+02   -0.21462E-04   -0.21315E-05    32   0.382E-02
  764 T=  1850. E= -.13642148E+02 F= -.14120439E+02 E0= -.14120439E+02  EK= 0.47829E+00 SP= 0.00E+00 SK= 0.00E+00
       N       E                     dE             d eps       ncg     rms          rms(c)
DAV:   1    -0.140175721527E+02    0.10285E+00   -0.73191E-02    32   0.211E+00    0.118E-01
DAV:   2    -0.140175017001E+02    0.70453E-04   -0.20292E-03    16   0.416E-01    0.431E-02
DAV:   3    -0.140175141770E+02   -0.12477E-04   -0.29368E-05    32   0.537E-02
  765 T=  1468. E= -.13637913E+02 F= -.14017514E+02 E0= -.14017514E+02  EK= 0.37960E+00 SP= 0.00E+00 SK= 0.00E+00
       N       E                     dE             d eps       ncg     rms          rms(c)
DAV:   1    -0.139407106745E+02    0.76791E-01   -0.46681E-02    24   0.184E+00    0.865E-02
DAV:   2    -0.139407121681E+02   -0.14935E-05   -0.99361E-04    32   0.296E-01
  766 T=  1187. E= -.13633819E+02 F= -.13940712E+02 E0= -.13940712E+02  EK= 0.30689E+00 SP= 0.00E+00 SK= 0.00E+00
       N       E                     dE             d eps       ncg     rms          rms(c)
DAV:   1    -0.139493854066E+02   -0.86747E-02   -0.16179E-02    16   0.139E+00    0.619E-02
DAV:   2    -0.139495614505E+02   -0.17604E-03   -0.95283E-04    32   0.287E-01    0.503E-02
DAV:   3    -0.139496433380E+02   -0.81888E-04   -0.51660E-05    24   0.633E-02
  767 T=  1220. E= -.13634210E+02 F= -.13949643E+02 E0= -.13949643E+02  EK= 0.31543E+00 SP= 0.00E+00 SK= 0.00E+00
       N       E                     dE             d eps       ncg     rms          rms(c)
DAV:   1    -0.140377594958E+02   -0.88198E-01   -0.19441E-02    16   0.165E+00    0.585E-02
DAV:   2    -0.140378819402E+02   -0.12244E-03   -0.87353E-04    32   0.328E-01    0.284E-02
DAV:   3    -0.140379100992E+02   -0.28159E-04   -0.27185E-05    16   0.402E-02
  768 T=  1544. E= -.13638632E+02 F= -.14037910E+02 E0= -.14037910E+02  EK= 0.39928E+00 SP= 0.00E+00 SK= 0.00E+00
       N       E                     dE             d eps       ncg     rms          rms(c)
DAV:   1    -0.141415460727E+02   -0.10366E+00   -0.43558E-02    32   0.225E+00    0.337E-02
DAV:   2    -0.141416625082E+02   -0.11644E-03   -0.91213E-04    32   0.369E-01    0.223E-02
DAV:   3    -0.141416845617E+02   -0.22053E-04   -0.53400E-06    32   0.198E-02
  769 T=  1931. E= -.13642368E+02 F= -.14141685E+02 E0= -.14141685E+02  EK= 0.49932E+00 SP= 0.00E+00 SK= 0.00E+00
       N       E                     dE             d eps       ncg     rms          rms(c)
DAV:   1    -0.142013397918E+02   -0.59677E-01   -0.63141E-02    16   0.255E+00    0.441E-02
DAV:   2    -0.142015270550E+02   -0.18726E-03   -0.18918E-03    32   0.514E-01    0.256E-02
DAV:   3    -0.142015430147E+02   -0.15960E-04   -0.12550E-05    32   0.288E-02
  770 T=  2159. E= -.13643330E+02 F= -.14201543E+02 E0= -.14201543E+02  EK= 0.55821E+00 SP= 0.00E+00 SK= 0.00E+00
       N       E                     dE             d eps       ncg     rms          rms(c)
DAV:   1    -0.141970403039E+02    0.44868E-02   -0.69944E-02    16   0.266E+00    0.526E-02
DAV:   2    -0.141972288222E+02   -0.18852E-03   -0.22728E-03    32   0.553E-01    0.328E-02
DAV:   3    -0.141972293915E+02   -0.56929E-06   -0.15789E-05    32   0.327E-02
  771 T=  2147. E= -.13642282E+02 F= -.14197229E+02 E0= -.14197229E+02  EK= 0.55495E+00 SP= 0.00E+00 SK= 0.00E+00
       N       E                     dE             d eps       ncg     rms          rms(c)
DAV:   1    -0.141413932764E+02    0.55836E-01   -0.59411E-02    16   0.241E+00    0.492E-02
DAV:   2    -0.141415350461E+02   -0.14177E-03   -0.19349E-03    24   0.499E-01    0.242E-02
DAV:   3    -0.141415348112E+02    0.23487E-06   -0.12274E-05    16   0.304E-02
  772 T=  1938. E= -.13640398E+02 F= -.14141535E+02 E0= -.14141535E+02  EK= 0.50114E+00 SP= 0.00E+00 SK= 0.00E+00
       N       E                     dE             d eps       ncg     rms          rms(c)
DAV:   1    -0.140617079909E+02    0.79827E-01   -0.53274E-02    32   0.230E+00    0.299E-02
DAV:   2    -0.140618137776E+02   -0.10579E-03   -0.10547E-03    24   0.322E-01    0.265E-02
DAV:   3    -0.140618124051E+02    0.13725E-05   -0.79096E-06    32   0.234E-02
  773 T=  1637. E= -.13638512E+02 F= -.14061812E+02 E0= -.14061812E+02  EK= 0.42330E+00 SP= 0.00E+00 SK= 0.00E+00
       N       E                     dE             d eps       ncg     rms          rms(c)
DAV:   1    -0.139859542004E+02    0.75860E-01   -0.32389E-02    16   0.185E+00    0.273E-02
DAV:   2    -0.139861256599E+02   -0.17146E-03   -0.17230E-03    32   0.403E-01    0.349E-02
DAV:   3    -0.139861187093E+02    0.69506E-05   -0.11930E-05    16   0.245E-02
  774 T=  1350. E= -.13637014E+02 F= -.13986119E+02 E0= -.13986119E+02  EK= 0.34911E+00 SP= 0.00E+00 SK= 0.00E+00
       N       E                     dE             d eps       ncg     rms          rms(c)
DAV:   1    -0.139362217714E+02    0.49904E-01   -0.17735E-02    16   0.147E+00    0.238E-02
DAV:   2    -0.139363051827E+02   -0.83411E-04   -0.76551E-04    32   0.268E-01
  775 T=  1161. E= -.13636090E+02 F= -.13936305E+02 E0= -.13936305E+02  EK= 0.30021E+00 SP= 0.00E+00 SK= 0.00E+00
       N       E                     dE             d eps       ncg     rms          rms(c)
DAV:   1    -0.139254364878E+02    0.10785E-01   -0.15040E-02    24   0.119E+00    0.542E-02
DAV:   2    -0.139254655658E+02   -0.29078E-04   -0.42580E-04    32   0.208E-01
  776 T=  1120. E= -.13635831E+02 F= -.13925466E+02 E0= -.13925466E+02  EK= 0.28963E+00 SP= 0.00E+00 SK= 0.00E+00
       N       E                     dE             d eps       ncg     rms          rms(c)
DAV:   1    -0.139567863560E+02   -0.31350E-01   -0.24957E-02    16   0.106E+00    0.298E-02
DAV:   2    -0.139568153129E+02   -0.28957E-04   -0.47471E-04    16   0.232E-01
  777 T=  1240. E= -.13636338E+02 F= -.13956815E+02 E0= -.13956815E+02  EK= 0.32048E+00 SP= 0.00E+00 SK= 0.00E+00
       N       E                     dE             d eps       ncg     rms          rms(c)
DAV:   1    -0.140224981487E+02   -0.65712E-01   -0.45041E-02    16   0.114E+00    0.324E-02
DAV:   2    -0.140225667909E+02   -0.68642E-04   -0.63620E-04    32   0.257E-01
  778 T=  1489. E= -.13637510E+02 F= -.14022567E+02 E0= -.14022567E+02  EK= 0.38506E+00 SP= 0.00E+00 SK= 0.00E+00
       N       E                     dE             d eps       ncg     rms          rms(c)
DAV:   1    -0.141035505933E+02   -0.81052E-01   -0.73950E-02    16   0.136E+00    0.226E-02
DAV:   2    -0.141036640381E+02   -0.11344E-03   -0.98558E-04    32   0.314E-01    0.238E-02
DAV:   3    -0.141036693979E+02   -0.53597E-05   -0.15645E-06    16   0.107E-02
  779 T=  1796. E= -.13639374E+02 F= -.14103669E+02 E0= -.14103669E+02  EK= 0.46429E+00 SP= 0.00E+00 SK= 0.00E+00
       N       E                     dE             d eps       ncg     rms          rms(c)
DAV:   1    -0.141705345340E+02   -0.66870E-01   -0.10454E-01    32   0.164E+00    0.246E-02
DAV:   2    -0.141705929604E+02   -0.58426E-04   -0.61688E-04    16   0.260E-01
  780 T=  2046. E= -.13641666E+02 F= -.14170593E+02 E0= -.14170593E+02  EK= 0.52893E+00 SP= 0.00E+00 SK= 0.00E+00
       N       E                     dE             d eps       ncg     rms          rms(c)
DAV:   1    -0.141894258218E+02   -0.18891E-01   -0.11930E-01    16   0.182E+00    0.297E-02
DAV:   2    -0.141896909051E+02   -0.26508E-03   -0.26474E-03    24   0.490E-01    0.344E-02
DAV:   3    -0.141896871231E+02    0.37820E-05   -0.16840E-05    16   0.316E-02
  781 T=  2114. E= -.13643133E+02 F= -.14189687E+02 E0= -.14189687E+02  EK= 0.54655E+00 SP= 0.00E+00 SK= 0.00E+00
       N       E                     dE             d eps       ncg     rms          rms(c)
DAV:   1    -0.141402016886E+02    0.49489E-01   -0.11462E-01    16   0.186E+00    0.312E-02
DAV:   2    -0.141404257004E+02   -0.22401E-03   -0.20901E-03    32   0.446E-01    0.388E-02
DAV:   3    -0.141404221950E+02    0.35054E-05   -0.20518E-06    16   0.129E-02
  782 T=  1928. E= -.13642082E+02 F= -.14140422E+02 E0= -.14140422E+02  EK= 0.49834E+00 SP= 0.00E+00 SK= 0.00E+00
       N       E                     dE             d eps       ncg     rms          rms(c)
DAV:   1    -0.140405604697E+02    0.99865E-01   -0.80031E-02    16   0.171E+00    0.745E-02
DAV:   2    -0.140405906202E+02   -0.30150E-04   -0.15165E-03    32   0.397E-01    0.295E-02
DAV:   3    -0.140405892151E+02    0.14051E-05   -0.91191E-06    16   0.328E-02
  783 T=  1557. E= -.13638040E+02 F= -.14040589E+02 E0= -.14040589E+02  EK= 0.40255E+00 SP= 0.00E+00 SK= 0.00E+00
       N       E                     dE             d eps       ncg     rms          rms(c)
DAV:   1    -0.139533699255E+02    0.87221E-01   -0.51667E-02    16   0.192E+00    0.899E-02
DAV:   2    -0.139534043499E+02   -0.34424E-04   -0.13318E-03    32   0.339E-01    0.385E-02
DAV:   3    -0.139534280649E+02   -0.23715E-04   -0.84285E-06    32   0.293E-02
  784 T=  1237. E= -.13633668E+02 F= -.13953428E+02 E0= -.13953428E+02  EK= 0.31976E+00 SP= 0.00E+00 SK= 0.00E+00
       N       E                     dE             d eps       ncg     rms          rms(c)
DAV:   1    -0.139436283156E+02    0.97760E-02   -0.20042E-02    16   0.166E+00    0.327E-02
DAV:   2    -0.139437803895E+02   -0.15207E-03   -0.16193E-03    32   0.351E-01    0.301E-02
DAV:   3    -0.139437782832E+02    0.21063E-05   -0.19159E-05    16   0.345E-02
  785 T=  1200. E= -.13633502E+02 F= -.13943778E+02 E0= -.13943778E+02  EK= 0.31028E+00 SP= 0.00E+00 SK= 0.00E+00
       N       E                     dE             d eps       ncg     rms          rms(c)
DAV:   1    -0.140142578067E+02   -0.70477E-01   -0.18015E-02    16   0.184E+00    0.271E-02
DAV:   2    -0.140143798158E+02   -0.12201E-03   -0.11747E-03    32   0.360E-01    0.331E-02
DAV:   3    -0.140143739964E+02    0.58194E-05   -0.22410E-06    16   0.152E-02
  786 T=  1459. E= -.13637283E+02 F= -.14014374E+02 E0= -.14014374E+02  EK= 0.37709E+00 SP= 0.00E+00 SK= 0.00E+00
       N       E                     dE             d eps       ncg     rms          rms(c)
DAV:   1    -0.141076809460E+02   -0.93301E-01   -0.37210E-02    24   0.223E+00    0.471E-02
DAV:   2    -0.141077905645E+02   -0.10962E-03   -0.12564E-03    32   0.408E-01    0.323E-02
DAV:   3    -0.141077905219E+02    0.42579E-07   -0.15474E-05    32   0.366E-02
  787 T=  1806. E= -.13640871E+02 F= -.14107791E+02 E0= -.14107791E+02  EK= 0.46692E+00 SP= 0.00E+00 SK= 0.00E+00
       N       E                     dE             d eps       ncg     rms          rms(c)
DAV:   1    -0.141653632979E+02   -0.57573E-01   -0.58916E-02    24   0.248E+00    0.483E-02
DAV:   2    -0.141654956698E+02   -0.13237E-03   -0.15681E-03    16   0.452E-01    0.254E-02
DAV:   3    -0.141654981318E+02   -0.24620E-05   -0.14519E-05    32   0.375E-02
  788 T=  2025. E= -.13642031E+02 F= -.14165498E+02 E0= -.14165498E+02  EK= 0.52347E+00 SP= 0.00E+00 SK= 0.00E+00
       N       E                     dE             d eps       ncg     rms          rms(c)
DAV:   1    -0.141647610758E+02    0.73459E-03   -0.68882E-02    16   0.243E+00    0.437E-02
DAV:   2    -0.141648881748E+02   -0.12710E-03   -0.14964E-03    24   0.442E-01    0.272E-02
DAV:   3    -0.141648864334E+02    0.17415E-05   -0.10168E-05    24   0.320E-02
  789 T=  2026. E= -.13641190E+02 F= -.14164886E+02 E0= -.14164886E+02  EK= 0.52370E+00 SP= 0.00E+00 SK= 0.00E+00
       N       E                     dE             d eps       ncg     rms          rms(c)
DAV:   1    -0.141148016390E+02    0.50087E-01   -0.64149E-02    24   0.219E+00    0.286E-02
DAV:   2    -0.141148656361E+02   -0.63997E-04   -0.74988E-04    16   0.309E-01
  790 T=  1839. E= -.13639488E+02 F= -.14114866E+02 E0= -.14114866E+02  EK= 0.47538E+00 SP= 0.00E+00 SK= 0.00E+00
       N       E                     dE             d eps       ncg     rms          rms(c)
DAV:   1    -0.140392900748E+02    0.75512E-01   -0.51945E-02    16   0.195E+00    0.358E-02
DAV:   2    -0.140394411321E+02   -0.15106E-03   -0.15302E-03    16   0.384E-01    0.300E-02
DAV:   3    -0.140394407416E+02    0.39055E-06   -0.14498E-05    32   0.326E-02
  791 T=  1554. E= -.13637669E+02 F= -.14039441E+02 E0= -.14039441E+02  EK= 0.40177E+00 SP= 0.00E+00 SK= 0.00E+00
       N       E                     dE             d eps       ncg     rms          rms(c)
DAV:   1    -0.139652554956E+02    0.74186E-01   -0.34647E-02    16   0.173E+00    0.482E-02
DAV:   2    -0.139653439939E+02   -0.88498E-04   -0.12385E-03    32   0.353E-01    0.335E-02
DAV:   3    -0.139653416194E+02    0.23745E-05   -0.18783E-05    16   0.362E-02
  792 T=  1273. E= -.13636181E+02 F= -.13965342E+02 E0= -.13965342E+02  EK= 0.32916E+00 SP= 0.00E+00 SK= 0.00E+00
       N       E                     dE             d eps       ncg     rms          rms(c)
DAV:   1    -0.139148643850E+02    0.50480E-01   -0.20799E-02    16   0.140E+00    0.143E-02
DAV:   2    -0.139149451224E+02   -0.80737E-04   -0.75468E-04    24   0.270E-01
  793 T=  1082. E= -.13635194E+02 F= -.13914945E+02 E0= -.13914945E+02  EK= 0.27975E+00 SP= 0.00E+00 SK= 0.00E+00
       N       E                     dE             d eps       ncg     rms          rms(c)
DAV:   1    -0.139025835434E+02    0.12281E-01   -0.14408E-02    16   0.111E+00    0.464E-02
DAV:   2    -0.139026295839E+02   -0.46041E-04   -0.46770E-04    24   0.216E-01
  794 T=  1036. E= -.13634798E+02 F= -.13902630E+02 E0= -.13902630E+02  EK= 0.26783E+00 SP= 0.00E+00 SK= 0.00E+00
       N       E                     dE             d eps       ncg     rms          rms(c)
DAV:   1    -0.139332978216E+02   -0.30714E-01   -0.20716E-02    16   0.926E-01    0.296E-02
DAV:   2    -0.139333483405E+02   -0.50519E-04   -0.52606E-04    24   0.222E-01
  795 T=  1153. E= -.13635174E+02 F= -.13933348E+02 E0= -.13933348E+02  EK= 0.29817E+00 SP= 0.00E+00 SK= 0.00E+00
       N       E                     dE             d eps       ncg     rms          rms(c)
DAV:   1    -0.140012660482E+02   -0.67968E-01   -0.38141E-02    16   0.984E-01    0.178E-02
DAV:   2    -0.140013317019E+02   -0.65654E-04   -0.58734E-04    24   0.227E-01
  796 T=  1412. E= -.13636282E+02 F= -.14001332E+02 E0= -.14001332E+02  EK= 0.36505E+00 SP= 0.00E+00 SK= 0.00E+00
       N       E                     dE             d eps       ncg     rms          rms(c)
DAV:   1    -0.140894964911E+02   -0.88230E-01   -0.67114E-02    16   0.127E+00    0.318E-02
DAV:   2    -0.140895965198E+02   -0.10003E-03   -0.82502E-04    16   0.287E-01    0.282E-02
DAV:   3    -0.140896147341E+02   -0.18214E-04   -0.18911E-05    24   0.377E-02
  797 T=  1747. E= -.13638036E+02 F= -.14089615E+02 E0= -.14089615E+02  EK= 0.45158E+00 SP= 0.00E+00 SK= 0.00E+00
       N       E                     dE             d eps       ncg     rms          rms(c)
DAV:   1    -0.141708486880E+02   -0.81252E-01   -0.97746E-02    16   0.163E+00    0.189E-02
DAV:   2    -0.141710784309E+02   -0.22974E-03   -0.19791E-03    16   0.433E-01    0.278E-02
DAV:   3    -0.141710819436E+02   -0.35127E-05   -0.16071E-05    24   0.359E-02
  798 T=  2054. E= -.13640032E+02 F= -.14171082E+02 E0= -.14171082E+02  EK= 0.53105E+00 SP= 0.00E+00 SK= 0.00E+00
       N       E                     dE             d eps       ncg     rms          rms(c)
DAV:   1    -0.142133884240E+02   -0.42310E-01   -0.11570E-01    16   0.189E+00    0.265E-02
DAV:   2    -0.142136578039E+02   -0.26938E-03   -0.25164E-03    24   0.484E-01    0.370E-02
DAV:   3    -0.142136549737E+02    0.28302E-05   -0.11049E-05    16   0.261E-02
  799 T=  2213. E= -.13641544E+02 F= -.14213655E+02 E0= -.14213655E+02  EK= 0.57211E+00 SP= 0.00E+00 SK= 0.00E+00
       N       E                     dE             d eps       ncg     rms          rms(c)
DAV:   1    -0.141924620080E+02    0.21196E-01   -0.12387E-01    16   0.216E+00    0.353E-02
DAV:   2    -0.141927233316E+02   -0.26132E-03   -0.24835E-03    16   0.475E-01    0.457E-02
DAV:   3    -0.141927174154E+02    0.59162E-05   -0.11979E-05    24   0.336E-02
  800 T=  2133. E= -.13641202E+02 F= -.14192717E+02 E0= -.14192717E+02  EK= 0.55152E+00 SP= 0.00E+00 SK= 0.00E+00
       N       E                     dE             d eps       ncg     rms          rms(c)
DAV:   1    -0.141115166654E+02    0.81207E-01   -0.89571E-02    16   0.191E+00    0.717E-02
DAV:   2    -0.141116694300E+02   -0.15276E-03   -0.27574E-03    16   0.530E-01    0.330E-02
DAV:   3    -0.141116740443E+02   -0.46143E-05   -0.24565E-05    24   0.493E-02
  801 T=  1831. E= -.13638287E+02 F= -.14111674E+02 E0= -.14111674E+02  EK= 0.47339E+00 SP= 0.00E+00 SK= 0.00E+00
       N       E                     dE             d eps       ncg     rms          rms(c)
DAV:   1    -0.140137864955E+02    0.97883E-01   -0.81219E-02    16   0.264E+00    0.796E-02
DAV:   2    -0.140139686879E+02   -0.18219E-03   -0.19150E-03    16   0.454E-01    0.395E-02
DAV:   3    -0.140139948048E+02   -0.26117E-04   -0.43813E-05    24   0.601E-02
  802 T=  1469. E= -.13634134E+02 F= -.14013995E+02 E0= -.14013995E+02  EK= 0.37986E+00 SP= 0.00E+00 SK= 0.00E+00
       N       E                     dE             d eps       ncg     rms          rms(c)
DAV:   1    -0.139615819681E+02    0.52387E-01   -0.32362E-02    16   0.195E+00    0.621E-02
DAV:   2    -0.139618042022E+02   -0.22223E-03   -0.21617E-03    24   0.421E-01    0.372E-02
DAV:   3    -0.139618534043E+02   -0.49202E-04   -0.30248E-05    16   0.426E-02
  803 T=  1276. E= -.13632104E+02 F= -.13961853E+02 E0= -.13961853E+02  EK= 0.32975E+00 SP= 0.00E+00 SK= 0.00E+00
       N       E                     dE             d eps       ncg     rms          rms(c)
DAV:   1    -0.139849642717E+02   -0.23160E-01   -0.13862E-02    16   0.168E+00    0.392E-02
DAV:   2    -0.139851718876E+02   -0.20762E-03   -0.18390E-03    32   0.387E-01    0.400E-02
DAV:   3    -0.139851682884E+02    0.35992E-05   -0.99959E-06    16   0.263E-02
  804 T=  1359. E= -.13633934E+02 F= -.13985168E+02 E0= -.13985168E+02  EK= 0.35123E+00 SP= 0.00E+00 SK= 0.00E+00
       N       E                     dE             d eps       ncg     rms          rms(c)
DAV:   1    -0.140574728522E+02   -0.72301E-01   -0.22472E-02    16   0.196E+00    0.415E-02
DAV:   2    -0.140575776310E+02   -0.10478E-03   -0.11405E-03    24   0.395E-01    0.299E-02
DAV:   3    -0.140575791898E+02   -0.15588E-05   -0.88496E-06    32   0.283E-02
  805 T=  1625. E= -.13637442E+02 F= -.14057579E+02 E0= -.14057579E+02  EK= 0.42014E+00 SP= 0.00E+00 SK= 0.00E+00
       N       E                     dE             d eps       ncg     rms          rms(c)
DAV:   1    -0.141257249177E+02   -0.68147E-01   -0.42160E-02    16   0.230E+00    0.432E-02
DAV:   2    -0.141258721197E+02   -0.14720E-03   -0.15725E-03    32   0.472E-01    0.268E-02
DAV:   3    -0.141258795726E+02   -0.74529E-05   -0.14486E-05    16   0.306E-02
  806 T=  1880. E= -.13639744E+02 F= -.14125880E+02 E0= -.14125880E+02  EK= 0.48614E+00 SP= 0.00E+00 SK= 0.00E+00
       N       E                     dE             d eps       ncg     rms          rms(c)
DAV:   1    -0.141516541706E+02   -0.25782E-01   -0.55789E-02    16   0.243E+00    0.502E-02
DAV:   2    -0.141517768377E+02   -0.12267E-03   -0.16677E-03    24   0.490E-01    0.273E-02
DAV:   3    -0.141517803906E+02   -0.35528E-05   -0.93228E-06    16   0.295E-02
  807 T=  1979. E= -.13640075E+02 F= -.14151780E+02 E0= -.14151780E+02  EK= 0.51170E+00 SP= 0.00E+00 SK= 0.00E+00
       N       E                     dE             d eps       ncg     rms          rms(c)
DAV:   1    -0.141266480106E+02    0.25129E-01   -0.57044E-02    16   0.235E+00    0.446E-02
DAV:   2    -0.141267545614E+02   -0.10655E-03   -0.14825E-03    24   0.453E-01    0.224E-02
DAV:   3    -0.141267538934E+02    0.66801E-06   -0.10051E-05    24   0.279E-02
  808 T=  1887. E= -.13638966E+02 F= -.14126754E+02 E0= -.14126754E+02  EK= 0.48779E+00 SP= 0.00E+00 SK= 0.00E+00
       N       E                     dE             d eps       ncg     rms          rms(c)
DAV:   1    -0.140653020866E+02    0.61452E-01   -0.47397E-02    16   0.210E+00    0.398E-02
DAV:   2    -0.140654233299E+02   -0.12124E-03   -0.15377E-03    24   0.419E-01    0.227E-02
DAV:   3    -0.140654232321E+02    0.97740E-07   -0.13144E-05    24   0.282E-02
  809 T=  1656. E= -.13637256E+02 F= -.14065423E+02 E0= -.14065423E+02  EK= 0.42817E+00 SP= 0.00E+00 SK= 0.00E+00
       N       E                     dE             d eps       ncg     rms          rms(c)
DAV:   1    -0.139924723116E+02    0.72951E-01   -0.36253E-02    16   0.194E+00    0.308E-02
DAV:   2    -0.139926401111E+02   -0.16780E-03   -0.18319E-03    24   0.416E-01    0.338E-02
DAV:   3    -0.139926328125E+02    0.72986E-05   -0.17260E-05    16   0.309E-02
  810 T=  1381. E= -.13635596E+02 F= -.13992633E+02 E0= -.13992633E+02  EK= 0.35704E+00 SP= 0.00E+00 SK= 0.00E+00
       N       E                     dE             d eps       ncg     rms          rms(c)
DAV:   1    -0.139328813542E+02    0.59759E-01   -0.22641E-02    16   0.159E+00    0.265E-02
DAV:   2    -0.139329727315E+02   -0.91377E-04   -0.91491E-04    24   0.306E-01
  811 T=  1155. E= -.13634335E+02 F= -.13932973E+02 E0= -.13932973E+02  EK= 0.29864E+00 SP= 0.00E+00 SK= 0.00E+00
       N       E                     dE             d eps       ncg     rms          rms(c)
DAV:   1    -0.139047873822E+02    0.28094E-01   -0.15738E-02    16   0.125E+00    0.543E-02
DAV:   2    -0.139048397223E+02   -0.52340E-04   -0.57599E-04    24   0.262E-01
  812 T=  1049. E= -.13633650E+02 F= -.13904840E+02 E0= -.13904840E+02  EK= 0.27119E+00 SP= 0.00E+00 SK= 0.00E+00
       N       E                     dE             d eps       ncg     rms          rms(c)
DAV:   1    -0.139178000533E+02   -0.13013E-01   -0.20668E-02    16   0.101E+00    0.647E-02
DAV:   2    -0.139177782529E+02    0.21800E-04   -0.80044E-04    24   0.261E-01
  813 T=  1099. E= -.13633708E+02 F= -.13917778E+02 E0= -.13917778E+02  EK= 0.28407E+00 SP= 0.00E+00 SK= 0.00E+00
       N       E                     dE             d eps       ncg     rms          rms(c)
DAV:   1    -0.139709044761E+02   -0.53104E-01   -0.31944E-02    16   0.902E-01    0.445E-02
DAV:   2    -0.139709216945E+02   -0.17218E-04   -0.60229E-04    24   0.216E-01
  814 T=  1301. E= -.13634469E+02 F= -.13970922E+02 E0= -.13970922E+02  EK= 0.33645E+00 SP= 0.00E+00 SK= 0.00E+00
       N       E                     dE             d eps       ncg     rms          rms(c)
DAV:   1    -0.140521510216E+02   -0.81247E-01   -0.59095E-02    16   0.107E+00    0.253E-02
DAV:   2    -0.140522203863E+02   -0.69365E-04   -0.64490E-04    24   0.246E-01
  815 T=  1610. E= -.13635938E+02 F= -.14052220E+02 E0= -.14052220E+02  EK= 0.41628E+00 SP= 0.00E+00 SK= 0.00E+00
       N       E                     dE             d eps       ncg     rms          rms(c)
DAV:   1    -0.141383036023E+02   -0.86153E-01   -0.86352E-02    16   0.137E+00    0.273E-02
DAV:   2    -0.141384381128E+02   -0.13451E-03   -0.11670E-03    24   0.340E-01    0.222E-02
DAV:   3    -0.141384455724E+02   -0.74596E-05   -0.95648E-06    32   0.225E-02
  816 T=  1936. E= -.13637964E+02 F= -.14138446E+02 E0= -.14138446E+02  EK= 0.50048E+00 SP= 0.00E+00 SK= 0.00E+00
       N       E                     dE             d eps       ncg     rms          rms(c)
DAV:   1    -0.141983028328E+02   -0.59865E-01   -0.11218E-01    16   0.165E+00    0.144E-02
DAV:   2    -0.141984687780E+02   -0.16595E-03   -0.15631E-03    32   0.417E-01    0.270E-02
DAV:   3    -0.141984666928E+02    0.20852E-05   -0.18027E-06    32   0.104E-02
  817 T=  2161. E= -.13639880E+02 F= -.14198467E+02 E0= -.14198467E+02  EK= 0.55859E+00 SP= 0.00E+00 SK= 0.00E+00
       N       E                     dE             d eps       ncg     rms          rms(c)
DAV:   1    -0.142026900214E+02   -0.42212E-02   -0.12003E-01    16   0.181E+00    0.307E-02
DAV:   2    -0.142028866220E+02   -0.19660E-03   -0.18303E-03    32   0.420E-01    0.404E-02
DAV:   3    -0.142028829067E+02    0.37152E-05   -0.10668E-06    16   0.982E-03
  818 T=  2176. E= -.13640286E+02 F= -.14202883E+02 E0= -.14202883E+02  EK= 0.56260E+00 SP= 0.00E+00 SK= 0.00E+00
       N       E                     dE             d eps       ncg     rms          rms(c)
DAV:   1    -0.141432348784E+02    0.59652E-01   -0.96825E-02    16   0.171E+00    0.481E-02
DAV:   2    -0.141434153605E+02   -0.18048E-03   -0.21303E-03    32   0.448E-01    0.382E-02
DAV:   3    -0.141434110429E+02    0.43177E-05   -0.19828E-05    16   0.370E-02
  819 T=  1954. E= -.13638200E+02 F= -.14143411E+02 E0= -.14143411E+02  EK= 0.50521E+00 SP= 0.00E+00 SK= 0.00E+00
       N       E                     dE             d eps       ncg     rms          rms(c)
DAV:   1    -0.140518698100E+02    0.91546E-01   -0.66907E-02    16   0.192E+00    0.113E-01
DAV:   2    -0.140518881810E+02   -0.18371E-04   -0.24277E-03    32   0.473E-01    0.382E-02
DAV:   3    -0.140519125949E+02   -0.24414E-04   -0.79486E-06    24   0.280E-02
  820 T=  1616. E= -.13634121E+02 F= -.14051913E+02 E0= -.14051913E+02  EK= 0.41779E+00 SP= 0.00E+00 SK= 0.00E+00
       N       E                     dE             d eps       ncg     rms          rms(c)
DAV:   1    -0.139905143051E+02    0.61374E-01   -0.33210E-02    16   0.190E+00    0.383E-02
DAV:   2    -0.139907386192E+02   -0.22431E-03   -0.21996E-03    32   0.388E-01    0.301E-02
DAV:   3    -0.139907496759E+02   -0.11057E-04   -0.15596E-05    16   0.334E-02
  821 T=  1391. E= -.13631217E+02 F= -.13990750E+02 E0= -.13990750E+02  EK= 0.35953E+00 SP= 0.00E+00 SK= 0.00E+00
       N       E                     dE             d eps       ncg     rms          rms(c)
DAV:   1    -0.140025177264E+02   -0.11779E-01   -0.10396E-02    16   0.183E+00    0.416E-02
DAV:   2    -0.140027247391E+02   -0.20701E-03   -0.20736E-03    32   0.407E-01    0.452E-02
DAV:   3    -0.140027190451E+02    0.56940E-05   -0.14626E-05    16   0.309E-02
  822 T=  1433. E= -.13632301E+02 F= -.14002719E+02 E0= -.14002719E+02  EK= 0.37042E+00 SP= 0.00E+00 SK= 0.00E+00
       N       E                     dE             d eps       ncg     rms          rms(c)
DAV:   1    -0.140717351122E+02   -0.69010E-01   -0.14634E-02    24   0.210E+00    0.414E-02
DAV:   2    -0.140718329743E+02   -0.97862E-04   -0.93427E-04    24   0.320E-01
  823 T=  1687. E= -.13635767E+02 F= -.14071833E+02 E0= -.14071833E+02  EK= 0.43607E+00 SP= 0.00E+00 SK= 0.00E+00
       N       E                     dE             d eps       ncg     rms          rms(c)
DAV:   1    -0.141443063835E+02   -0.72571E-01   -0.32671E-02    32   0.239E+00    0.743E-02
DAV:   2    -0.141444171658E+02   -0.11078E-03   -0.12861E-03    16   0.421E-01    0.495E-02
DAV:   3    -0.141444441458E+02   -0.26980E-04   -0.33108E-05    32   0.621E-02
  824 T=  1957. E= -.13638398E+02 F= -.14144444E+02 E0= -.14144444E+02  EK= 0.50605E+00 SP= 0.00E+00 SK= 0.00E+00
       N       E                     dE             d eps       ncg     rms          rms(c)
DAV:   1    -0.141761316347E+02   -0.31714E-01   -0.52460E-02    16   0.250E+00    0.436E-02
DAV:   2    -0.141763296692E+02   -0.19803E-03   -0.20493E-03    32   0.519E-01    0.217E-02
DAV:   3    -0.141763324489E+02   -0.27797E-05   -0.17051E-05    16   0.311E-02
  825 T=  2078. E= -.13639016E+02 F= -.14176332E+02 E0= -.14176332E+02  EK= 0.53732E+00 SP= 0.00E+00 SK= 0.00E+00
       N       E                     dE             d eps       ncg     rms          rms(c)
DAV:   1    -0.141536708027E+02    0.22659E-01   -0.60324E-02    32   0.235E+00    0.514E-02
DAV:   2    -0.141537912324E+02   -0.12043E-03   -0.15028E-03    16   0.440E-01    0.314E-02
DAV:   3    -0.141537961830E+02   -0.49506E-05   -0.17363E-05    32   0.435E-02
  826 T=  1995. E= -.13638035E+02 F= -.14153796E+02 E0= -.14153796E+02  EK= 0.51576E+00 SP= 0.00E+00 SK= 0.00E+00
       N       E                     dE             d eps       ncg     rms          rms(c)
DAV:   1    -0.140887327132E+02    0.65059E-01   -0.55357E-02    24   0.205E+00    0.382E-02
DAV:   2    -0.140888143898E+02   -0.81677E-04   -0.11213E-03    24   0.371E-01    0.161E-02
DAV:   3    -0.140888160193E+02   -0.16295E-05   -0.62457E-06    32   0.215E-02
  827 T=  1750. E= -.13636329E+02 F= -.14088816E+02 E0= -.14088816E+02  EK= 0.45249E+00 SP= 0.00E+00 SK= 0.00E+00
       N       E                     dE             d eps       ncg     rms          rms(c)
DAV:   1    -0.140062912138E+02    0.82523E-01   -0.50699E-02    24   0.189E+00    0.376E-02
DAV:   2    -0.140064429369E+02   -0.15172E-03   -0.16643E-03    16   0.416E-01    0.285E-02
DAV:   3    -0.140064429891E+02   -0.52229E-07   -0.18321E-05    32   0.378E-02
  828 T=  1439. E= -.13634519E+02 F= -.14006443E+02 E0= -.14006443E+02  EK= 0.37192E+00 SP= 0.00E+00 SK= 0.00E+00
       N       E                     dE             d eps       ncg     rms          rms(c)
DAV:   1    -0.139334050604E+02    0.73038E-01   -0.40038E-02    16   0.166E+00    0.408E-02
DAV:   2    -0.139335543519E+02   -0.14929E-03   -0.17657E-03    24   0.418E-01    0.313E-02
DAV:   3    -0.139335512529E+02    0.30991E-05   -0.21817E-05    24   0.364E-02
  829 T=  1162. E= -.13633087E+02 F= -.13933551E+02 E0= -.13933551E+02  EK= 0.30046E+00 SP= 0.00E+00 SK= 0.00E+00
       N       E                     dE             d eps       ncg     rms          rms(c)
DAV:   1    -0.138913134972E+02    0.42241E-01   -0.29290E-02    16   0.130E+00    0.178E-02
DAV:   2    -0.138914180970E+02   -0.10460E-03   -0.10175E-03    32   0.297E-01    0.214E-02
DAV:   3    -0.138914165248E+02    0.15722E-05   -0.45399E-06    16   0.161E-02
  830 T=  1002. E= -.13632286E+02 F= -.13891417E+02 E0= -.13891417E+02  EK= 0.25913E+00 SP= 0.00E+00 SK= 0.00E+00
       N       E                     dE             d eps       ncg     rms          rms(c)
DAV:   1    -0.138920214574E+02   -0.60336E-03   -0.25848E-02    24   0.105E+00    0.265E-02
DAV:   2    -0.138920780279E+02   -0.56570E-04   -0.50656E-04    32   0.203E-01
  831 T=  1005. E= -.13632168E+02 F= -.13892078E+02 E0= -.13892078E+02  EK= 0.25991E+00 SP= 0.00E+00 SK= 0.00E+00
       N       E                     dE             d eps       ncg     rms          rms(c)
DAV:   1    -0.139366859674E+02   -0.44665E-01   -0.34026E-02    16   0.960E-01    0.245E-02
DAV:   2    -0.139367561471E+02   -0.70180E-04   -0.59086E-04    16   0.196E-01
  832 T=  1176. E= -.13632831E+02 F= -.13936756E+02 E0= -.13936756E+02  EK= 0.30393E+00 SP= 0.00E+00 SK= 0.00E+00
       N       E                     dE             d eps       ncg     rms          rms(c)
DAV:   1    -0.140148740385E+02   -0.78188E-01   -0.52431E-02    16   0.118E+00    0.187E-02
DAV:   2    -0.140149701143E+02   -0.96076E-04   -0.84681E-04    32   0.268E-01
  833 T=  1473. E= -.13634212E+02 F= -.14014970E+02 E0= -.14014970E+02  EK= 0.38076E+00 SP= 0.00E+00 SK= 0.00E+00
       N       E                     dE             d eps       ncg     rms          rms(c)
DAV:   1    -0.141047845917E+02   -0.89911E-01   -0.77795E-02    32   0.151E+00    0.466E-02
DAV:   2    -0.141048444078E+02   -0.59816E-04   -0.61037E-04    16   0.250E-01
  834 T=  1813. E= -.13636091E+02 F= -.14104844E+02 E0= -.14104844E+02  EK= 0.46875E+00 SP= 0.00E+00 SK= 0.00E+00
       N       E                     dE             d eps       ncg     rms          rms(c)
DAV:   1    -0.141762372292E+02   -0.71453E-01   -0.95286E-02    32   0.180E+00    0.198E-02
DAV:   2    -0.141763286498E+02   -0.91421E-04   -0.82340E-04    32   0.303E-01
  835 T=  2082. E= -.13637958E+02 F= -.14176329E+02 E0= -.14176329E+02  EK= 0.53837E+00 SP= 0.00E+00 SK= 0.00E+00
       N       E                     dE             d eps       ncg     rms          rms(c)
DAV:   1    -0.142004238932E+02   -0.24187E-01   -0.10653E-01    32   0.208E+00    0.428E-02
DAV:   2    -0.142005290205E+02   -0.10513E-03   -0.96401E-04    32   0.325E-01    0.301E-02
DAV:   3    -0.142005569284E+02   -0.27908E-04   -0.31049E-05    24   0.467E-02
  836 T=  2173. E= -.13638888E+02 F= -.14200557E+02 E0= -.14200557E+02  EK= 0.56167E+00 SP= 0.00E+00 SK= 0.00E+00
       N       E                     dE             d eps       ncg     rms          rms(c)
DAV:   1    -0.141659884697E+02    0.34541E-01   -0.91933E-02    32   0.219E+00    0.439E-02
DAV:   2    -0.141660910114E+02   -0.10254E-03   -0.12095E-03    16   0.370E-01    0.273E-02
DAV:   3    -0.141660926848E+02   -0.16734E-05   -0.13591E-05    32   0.378E-02
  837 T=  2044. E= -.13637718E+02 F= -.14166093E+02 E0= -.14166093E+02  EK= 0.52837E+00 SP= 0.00E+00 SK= 0.00E+00
       N       E                     dE             d eps       ncg     rms          rms(c)
DAV:   1    -0.140941754238E+02    0.71916E-01   -0.60761E-02    16   0.221E+00    0.854E-02
DAV:   2    -0.140942642568E+02   -0.88833E-04   -0.26014E-03    32   0.539E-01    0.258E-02
DAV:   3    -0.140942719060E+02   -0.76492E-05   -0.82048E-06    32   0.283E-02
  838 T=  1778. E= -.13634552E+02 F= -.14094272E+02 E0= -.14094272E+02  EK= 0.45972E+00 SP= 0.00E+00 SK= 0.00E+00
       N       E                     dE             d eps       ncg     rms          rms(c)
DAV:   1    -0.140336358120E+02    0.60628E-01   -0.36963E-02    16   0.228E+00    0.642E-02
DAV:   2    -0.140338330871E+02   -0.19728E-03   -0.24779E-03    32   0.510E-01    0.310E-02
DAV:   3    -0.140338462129E+02   -0.13126E-04   -0.70429E-06    16   0.262E-02
  839 T=  1555. E= -.13631844E+02 F= -.14033846E+02 E0= -.14033846E+02  EK= 0.40200E+00 SP= 0.00E+00 SK= 0.00E+00
       N       E                     dE             d eps       ncg     rms          rms(c)
DAV:   1    -0.140258558957E+02    0.79772E-02   -0.15467E-02    16   0.196E+00    0.521E-02
DAV:   2    -0.140260714815E+02   -0.21559E-03   -0.23849E-03    32   0.449E-01    0.310E-02
DAV:   3    -0.140260835263E+02   -0.12045E-04   -0.99048E-06    16   0.338E-02
  840 T=  1525. E= -.13631872E+02 F= -.14026084E+02 E0= -.14026084E+02  EK= 0.39421E+00 SP= 0.00E+00 SK= 0.00E+00
       N       E                     dE             d eps       ncg     rms          rms(c)
DAV:   1    -0.140718853849E+02   -0.45814E-01   -0.19426E-02    32   0.187E+00    0.459E-02
DAV:   2    -0.140720196616E+02   -0.13428E-03   -0.13895E-03    16   0.343E-01    0.359E-02
DAV:   3    -0.140720287830E+02   -0.91214E-05   -0.24765E-05    32   0.502E-02
  841 T=  1693. E= -.13634319E+02 F= -.14072029E+02 E0= -.14072029E+02  EK= 0.43771E+00 SP= 0.00E+00 SK= 0.00E+00
       N       E                     dE             d eps       ncg     rms          rms(c)
DAV:   1    -0.141358705708E+02   -0.63851E-01   -0.39778E-02    24   0.201E+00    0.460E-02
DAV:   2    -0.141359932673E+02   -0.12270E-03   -0.14857E-03    32   0.407E-01    0.302E-02
DAV:   3    -0.141359902352E+02    0.30321E-05   -0.11744E-05    16   0.311E-02
  842 T=  1930. E= -.13637099E+02 F= -.14135990E+02 E0= -.14135990E+02  EK= 0.49889E+00 SP= 0.00E+00 SK= 0.00E+00
       N       E                     dE             d eps       ncg     rms          rms(c)
DAV:   1    -0.141751247104E+02   -0.39131E-01   -0.61282E-02    16   0.211E+00    0.509E-02
DAV:   2    -0.141752684020E+02   -0.14369E-03   -0.18401E-03    32   0.487E-01    0.263E-02
DAV:   3    -0.141752683351E+02    0.66927E-07   -0.11055E-05    16   0.295E-02
  843 T=  2076. E= -.13638470E+02 F= -.14175268E+02 E0= -.14175268E+02  EK= 0.53680E+00 SP= 0.00E+00 SK= 0.00E+00
       N       E                     dE             d eps       ncg     rms          rms(c)
DAV:   1    -0.141661560861E+02    0.91123E-02   -0.73482E-02    16   0.209E+00    0.489E-02
DAV:   2    -0.141662593474E+02   -0.10326E-03   -0.14759E-03    32   0.450E-01    0.222E-02
DAV:   3    -0.141662586931E+02    0.65427E-06   -0.10320E-05    32   0.272E-02
  844 T=  2043. E= -.13638115E+02 F= -.14166259E+02 E0= -.14166259E+02  EK= 0.52814E+00 SP= 0.00E+00 SK= 0.00E+00
       N       E                     dE             d eps       ncg     rms          rms(c)
DAV:   1    -0.141114541041E+02    0.54805E-01   -0.71648E-02    32   0.193E+00    0.399E-02
DAV:   2    -0.141114869525E+02   -0.32848E-04   -0.71428E-04    16   0.283E-01
  845 T=  1837. E= -.13636658E+02 F= -.14111487E+02 E0= -.14111487E+02  EK= 0.47483E+00 SP= 0.00E+00 SK= 0.00E+00
       N       E                     dE             d eps       ncg     rms          rms(c)
DAV:   1    -0.140313774245E+02    0.80077E-01   -0.62396E-02    16   0.178E+00    0.452E-02
DAV:   2    -0.140315508745E+02   -0.17345E-03   -0.18831E-03    32   0.423E-01    0.376E-02
DAV:   3    -0.140315449221E+02    0.59524E-05   -0.27747E-05    16   0.392E-02
  846 T=  1534. E= -.13634884E+02 F= -.14031545E+02 E0= -.14031545E+02  EK= 0.39666E+00 SP= 0.00E+00 SK= 0.00E+00
       N       E                     dE             d eps       ncg     rms          rms(c)
DAV:   1    -0.139527710610E+02    0.78780E-01   -0.48188E-02    32   0.157E+00    0.399E-02
DAV:   2    -0.139528226733E+02   -0.51612E-04   -0.77947E-04    16   0.269E-01
  847 T=  1236. E= -.13633318E+02 F= -.13952823E+02 E0= -.13952823E+02  EK= 0.31950E+00 SP= 0.00E+00 SK= 0.00E+00
       N       E                     dE             d eps       ncg     rms          rms(c)
DAV:   1    -0.138980937515E+02    0.54677E-01   -0.34414E-02    16   0.125E+00    0.562E-02
DAV:   2    -0.138981971529E+02   -0.10340E-03   -0.10001E-03    32   0.291E-01    0.451E-02
DAV:   3    -0.138982032578E+02   -0.61049E-05   -0.10437E-04    32   0.769E-02
  848 T=  1028. E= -.13632316E+02 F= -.13898203E+02 E0= -.13898203E+02  EK= 0.26589E+00 SP= 0.00E+00 SK= 0.00E+00
       N       E                     dE             d eps       ncg     rms          rms(c)
DAV:   1    -0.138824209100E+02    0.15776E-01   -0.24062E-02    16   0.863E-01    0.503E-02
DAV:   2    -0.138824654269E+02   -0.44517E-04   -0.74788E-04    32   0.243E-01
  849 T=   969. E= -.13632040E+02 F= -.13882465E+02 E0= -.13882465E+02  EK= 0.25043E+00 SP= 0.00E+00 SK= 0.00E+00
       N       E                     dE             d eps       ncg     rms          rms(c)
DAV:   1    -0.139098182111E+02   -0.27397E-01   -0.26296E-02    16   0.814E-01    0.392E-02
DAV:   2    -0.139098707781E+02   -0.52567E-04   -0.65753E-04    32   0.214E-01
  850 T=  1073. E= -.13632450E+02 F= -.13909871E+02 E0= -.13909871E+02  EK= 0.27742E+00 SP= 0.00E+00 SK= 0.00E+00
       N       E                     dE             d eps       ncg     rms          rms(c)
DAV:   1    -0.139736305034E+02   -0.63812E-01   -0.40054E-02    16   0.106E+00    0.269E-02
DAV:   2    -0.139736947478E+02   -0.64244E-04   -0.59536E-04    32   0.248E-01
  851 T=  1315. E= -.13633617E+02 F= -.13973695E+02 E0= -.13973695E+02  EK= 0.34008E+00 SP= 0.00E+00 SK= 0.00E+00
       N       E                     dE             d eps       ncg     rms          rms(c)
DAV:   1    -0.140558713088E+02   -0.82241E-01   -0.62264E-02    16   0.143E+00    0.343E-02
DAV:   2    -0.140559945863E+02   -0.12328E-03   -0.97725E-04    32   0.346E-01    0.281E-02
DAV:   3    -0.140560034500E+02   -0.88637E-05   -0.11992E-05    16   0.255E-02
  852 T=  1627. E= -.13635399E+02 F= -.14056003E+02 E0= -.14056003E+02  EK= 0.42060E+00 SP= 0.00E+00 SK= 0.00E+00
       N       E                     dE             d eps       ncg     rms          rms(c)
DAV:   1    -0.141296452497E+02   -0.73651E-01   -0.85438E-02    16   0.173E+00    0.252E-02
DAV:   2    -0.141298204837E+02   -0.17523E-03   -0.16261E-03    24   0.426E-01    0.259E-02
DAV:   3    -0.141298192683E+02    0.12154E-05   -0.14397E-05    32   0.275E-02
  853 T=  1905. E= -.13637336E+02 F= -.14129819E+02 E0= -.14129819E+02  EK= 0.49248E+00 SP= 0.00E+00 SK= 0.00E+00
       N       E                     dE             d eps       ncg     rms          rms(c)
DAV:   1    -0.141649803107E+02   -0.35160E-01   -0.10145E-01    16   0.198E+00    0.187E-02
DAV:   2    -0.141652375082E+02   -0.25720E-03   -0.23678E-03    24   0.499E-01    0.443E-02
DAV:   3    -0.141652307776E+02    0.67307E-05   -0.48012E-06    32   0.183E-02
  854 T=  2038. E= -.13638394E+02 F= -.14165231E+02 E0= -.14165231E+02  EK= 0.52684E+00 SP= 0.00E+00 SK= 0.00E+00
       N       E                     dE             d eps       ncg     rms          rms(c)
DAV:   1    -0.141432307793E+02    0.22007E-01   -0.96668E-02    16   0.204E+00    0.378E-02
DAV:   2    -0.141434415355E+02   -0.21076E-03   -0.19218E-03    24   0.445E-01    0.458E-02
DAV:   3    -0.141434380575E+02    0.34780E-05   -0.51172E-06    24   0.203E-02
  855 T=  1957. E= -.13637608E+02 F= -.14143438E+02 E0= -.14143438E+02  EK= 0.50583E+00 SP= 0.00E+00 SK= 0.00E+00
       N       E                     dE             d eps       ncg     rms          rms(c)
DAV:   1    -0.140748538925E+02    0.68588E-01   -0.68917E-02    16   0.191E+00    0.113E-01
DAV:   2    -0.140748351397E+02    0.18753E-04   -0.27494E-03    32   0.522E-01    0.335E-02
DAV:   3    -0.140748461986E+02   -0.11059E-04   -0.22290E-05    16   0.411E-02
  856 T=  1702. E= -.13634716E+02 F= -.14074846E+02 E0= -.14074846E+02  EK= 0.44013E+00 SP= 0.00E+00 SK= 0.00E+00
       N       E                     dE             d eps       ncg     rms          rms(c)
DAV:   1    -0.140045700020E+02    0.70265E-01   -0.47498E-02    24   0.202E+00    0.529E-02
DAV:   2    -0.140047328510E+02   -0.16285E-03   -0.17168E-03    16   0.417E-01    0.223E-02
DAV:   3    -0.140047584396E+02   -0.25589E-04   -0.10480E-05    32   0.330E-02
  857 T=  1445. E= -.13631171E+02 F= -.14004758E+02 E0= -.14004758E+02  EK= 0.37359E+00 SP= 0.00E+00 SK= 0.00E+00
       N       E                     dE             d eps       ncg     rms          rms(c)
DAV:   1    -0.139864211402E+02    0.18312E-01   -0.22310E-02    16   0.179E+00    0.588E-02
DAV:   2    -0.139865819829E+02   -0.16084E-03   -0.22065E-03    24   0.410E-01    0.262E-02
DAV:   3    -0.139865946266E+02   -0.12644E-04   -0.92680E-06    16   0.302E-02
  858 T=  1379. E= -.13630047E+02 F= -.13986595E+02 E0= -.13986595E+02  EK= 0.35655E+00 SP= 0.00E+00 SK= 0.00E+00
       N       E                     dE             d eps       ncg     rms          rms(c)
DAV:   1    -0.140367839328E+02   -0.50202E-01   -0.19721E-02    24   0.183E+00    0.399E-02
DAV:   2    -0.140368717089E+02   -0.87776E-04   -0.77316E-04    24   0.290E-01
  859 T=  1565. E= -.13632214E+02 F= -.14036872E+02 E0= -.14036872E+02  EK= 0.40466E+00 SP= 0.00E+00 SK= 0.00E+00
       N       E                     dE             d eps       ncg     rms          rms(c)
DAV:   1    -0.141222436288E+02   -0.85460E-01   -0.37933E-02    16   0.212E+00    0.537E-02
DAV:   2    -0.141223835801E+02   -0.13995E-03   -0.14254E-03    24   0.415E-01    0.409E-02
DAV:   3    -0.141223965155E+02   -0.12935E-04   -0.12405E-05    16   0.377E-02
  860 T=  1883. E= -.13635556E+02 F= -.14122397E+02 E0= -.14122397E+02  EK= 0.48684E+00 SP= 0.00E+00 SK= 0.00E+00
       N       E                     dE             d eps       ncg     rms          rms(c)
DAV:   1    -0.141905712775E+02   -0.68188E-01   -0.66437E-02    16   0.234E+00    0.358E-02
DAV:   2    -0.141907276469E+02   -0.15637E-03   -0.15786E-03    24   0.464E-01    0.240E-02
DAV:   3    -0.141907290457E+02   -0.13988E-05   -0.10244E-05    16   0.276E-02
  861 T=  2139. E= -.13637713E+02 F= -.14190729E+02 E0= -.14190729E+02  EK= 0.55302E+00 SP= 0.00E+00 SK= 0.00E+00
       N       E                     dE             d eps       ncg     rms          rms(c)
DAV:   1    -0.142062950452E+02   -0.15567E-01   -0.85897E-02    24   0.238E+00    0.573E-02
DAV:   2    -0.142064452566E+02   -0.15021E-03   -0.18892E-03    24   0.507E-01    0.337E-02
DAV:   3    -0.142064503904E+02   -0.51337E-05   -0.13033E-05    24   0.357E-02
  862 T=  2200. E= -.13637777E+02 F= -.14206450E+02 E0= -.14206450E+02  EK= 0.56867E+00 SP= 0.00E+00 SK= 0.00E+00
       N       E                     dE             d eps       ncg     rms          rms(c)
DAV:   1    -0.141649227541E+02    0.41523E-01   -0.90762E-02    16   0.228E+00    0.534E-02
DAV:   2    -0.141650677282E+02   -0.14497E-03   -0.19353E-03    24   0.502E-01    0.266E-02
DAV:   3    -0.141650674393E+02    0.28893E-06   -0.15683E-05    32   0.332E-02
  863 T=  2045. E= -.13636435E+02 F= -.14165067E+02 E0= -.14165067E+02  EK= 0.52863E+00 SP= 0.00E+00 SK= 0.00E+00
       N       E                     dE             d eps       ncg     rms          rms(c)
DAV:   1    -0.140854106008E+02    0.79657E-01   -0.79277E-02    16   0.187E+00    0.486E-02
DAV:   2    -0.140855582920E+02   -0.14769E-03   -0.20049E-03    24   0.461E-01    0.268E-02
DAV:   3    -0.140855560684E+02    0.22236E-05   -0.18933E-05    16   0.347E-02
  864 T=  1745. E= -.13634501E+02 F= -.14085556E+02 E0= -.14085556E+02  EK= 0.45106E+00 SP= 0.00E+00 SK= 0.00E+00
       N       E                     dE             d eps       ncg     rms          rms(c)
DAV:   1    -0.139965791063E+02    0.88979E-01   -0.70211E-02    24   0.182E+00    0.379E-02
DAV:   2    -0.139967497034E+02   -0.17060E-03   -0.17696E-03    24   0.403E-01    0.350E-02
DAV:   3    -0.139967470756E+02    0.26278E-05   -0.16395E-05    16   0.313E-02
  865 T=  1408. E= -.13632663E+02 F= -.13996747E+02 E0= -.13996747E+02  EK= 0.36408E+00 SP= 0.00E+00 SK= 0.00E+00
       N       E                     dE             d eps       ncg     rms          rms(c)
DAV:   1    -0.139256733388E+02    0.71076E-01   -0.49312E-02    16   0.143E+00    0.263E-02
DAV:   2    -0.139258172388E+02   -0.14390E-03   -0.14341E-03    24   0.346E-01    0.287E-02
DAV:   3    -0.139258150650E+02    0.21737E-05   -0.91166E-06    16   0.237E-02
  866 T=  1139. E= -.13631381E+02 F= -.13925815E+02 E0= -.13925815E+02  EK= 0.29443E+00 SP= 0.00E+00 SK= 0.00E+00
       N       E                     dE             d eps       ncg     rms          rms(c)
DAV:   1    -0.138915921532E+02    0.34225E-01   -0.35322E-02    24   0.108E+00    0.224E-02
DAV:   2    -0.138916458700E+02   -0.53717E-04   -0.47937E-04    24   0.194E-01
  867 T=  1009. E= -.13630818E+02 F= -.13891646E+02 E0= -.13891646E+02  EK= 0.26083E+00 SP= 0.00E+00 SK= 0.00E+00
       N       E                     dE             d eps       ncg     rms          rms(c)
DAV:   1    -0.139022582615E+02   -0.10666E-01   -0.32391E-02    16   0.976E-01    0.222E-02
DAV:   2    -0.139023178819E+02   -0.59620E-04   -0.45652E-04    24   0.178E-01
  868 T=  1049. E= -.13631031E+02 F= -.13902318E+02 E0= -.13902318E+02  EK= 0.27129E+00 SP= 0.00E+00 SK= 0.00E+00
       N       E                     dE             d eps       ncg     rms          rms(c)
DAV:   1    -0.139539582256E+02   -0.51700E-01   -0.41623E-02    16   0.116E+00    0.225E-02
DAV:   2    -0.139540316348E+02   -0.73409E-04   -0.60173E-04    24   0.256E-01
  869 T=  1246. E= -.13632002E+02 F= -.13954032E+02 E0= -.13954032E+02  EK= 0.32203E+00 SP= 0.00E+00 SK= 0.00E+00
       N       E                     dE             d eps       ncg     rms          rms(c)
DAV:   1    -0.140308593668E+02   -0.76901E-01   -0.61222E-02    16   0.148E+00    0.269E-02
DAV:   2    -0.140309689592E+02   -0.10959E-03   -0.97763E-04    16   0.345E-01    0.309E-02
DAV:   3    -0.140309654088E+02    0.35504E-05   -0.68956E-06    16   0.240E-02
  870 T=  1537. E= -.13633565E+02 F= -.14030965E+02 E0= -.14030965E+02  EK= 0.39740E+00 SP= 0.00E+00 SK= 0.00E+00
       N       E                     dE             d eps       ncg     rms          rms(c)
DAV:   1    -0.141069312022E+02   -0.75962E-01   -0.82641E-02    24   0.179E+00    0.141E-02
DAV:   2    -0.141070451639E+02   -0.11396E-03   -0.10557E-03    16   0.344E-01    0.179E-02
DAV:   3    -0.141070465060E+02   -0.13420E-05   -0.47654E-06    32   0.200E-02
  871 T=  1824. E= -.13635474E+02 F= -.14107047E+02 E0= -.14107047E+02  EK= 0.47157E+00 SP= 0.00E+00 SK= 0.00E+00
       N       E                     dE             d eps       ncg     rms          rms(c)
DAV:   1    -0.141514135706E+02   -0.44368E-01   -0.95275E-02    16   0.207E+00    0.394E-02
DAV:   2    -0.141516781417E+02   -0.26457E-03   -0.27874E-03    24   0.517E-01    0.405E-02
DAV:   3    -0.141516679051E+02    0.10237E-04   -0.31961E-05    24   0.420E-02
  872 T=  1991. E= -.13636888E+02 F= -.14151668E+02 E0= -.14151668E+02  EK= 0.51478E+00 SP= 0.00E+00 SK= 0.00E+00
       N       E                     dE             d eps       ncg     rms          rms(c)
DAV:   1    -0.141424390677E+02    0.92391E-02   -0.93336E-02    16   0.223E+00    0.382E-02
DAV:   2    -0.141426222450E+02   -0.18318E-03   -0.18942E-03    24   0.462E-01    0.378E-02
DAV:   3    -0.141426179722E+02    0.42728E-05   -0.10641E-05    24   0.289E-02
  873 T=  1957. E= -.13636682E+02 F= -.14142618E+02 E0= -.14142618E+02  EK= 0.50594E+00 SP= 0.00E+00 SK= 0.00E+00
       N       E                     dE             d eps       ncg     rms          rms(c)
DAV:   1    -0.140832220057E+02    0.59400E-01   -0.69109E-02    16   0.218E+00    0.722E-02
DAV:   2    -0.140833111219E+02   -0.89116E-04   -0.20509E-03    32   0.474E-01    0.260E-02
DAV:   3    -0.140833122561E+02   -0.11342E-05   -0.18679E-05    24   0.353E-02
  874 T=  1736. E= -.13634407E+02 F= -.14083312E+02 E0= -.14083312E+02  EK= 0.44891E+00 SP= 0.00E+00 SK= 0.00E+00
       N       E                     dE             d eps       ncg     rms          rms(c)
DAV:   1    -0.140099475740E+02    0.73364E-01   -0.46111E-02    16   0.230E+00    0.635E-02
DAV:   2    -0.140101177941E+02   -0.17022E-03   -0.24007E-03    32   0.535E-01    0.243E-02
DAV:   3    -0.140101267133E+02   -0.89192E-05   -0.80190E-06    16   0.235E-02
  875 T=  1466. E= -.13631176E+02 F= -.14010127E+02 E0= -.14010127E+02  EK= 0.37895E+00 SP= 0.00E+00 SK= 0.00E+00
       N       E                     dE             d eps       ncg     rms          rms(c)
DAV:   1    -0.139731794467E+02    0.36938E-01   -0.25711E-02    16   0.216E+00    0.687E-02
DAV:   2    -0.139733097025E+02   -0.13026E-03   -0.21819E-03    24   0.493E-01    0.313E-02
DAV:   3    -0.139733089262E+02    0.77629E-06   -0.12752E-05    32   0.377E-02
  876 T=  1330. E= -.13629426E+02 F= -.13973309E+02 E0= -.13973309E+02  EK= 0.34388E+00 SP= 0.00E+00 SK= 0.00E+00
       N       E                     dE             d eps       ncg     rms          rms(c)
DAV:   1    -0.140004145788E+02   -0.27105E-01   -0.22019E-02    16   0.196E+00    0.516E-02
DAV:   2    -0.140006306069E+02   -0.21603E-03   -0.22964E-03    24   0.445E-01    0.340E-02
DAV:   3    -0.140006409177E+02   -0.10311E-04   -0.11104E-05    16   0.365E-02
  877 T=  1432. E= -.13630498E+02 F= -.14000641E+02 E0= -.14000641E+02  EK= 0.37014E+00 SP= 0.00E+00 SK= 0.00E+00
       N       E                     dE             d eps       ncg     rms          rms(c)
DAV:   1    -0.140765028637E+02   -0.75872E-01   -0.41657E-02    16   0.188E+00    0.504E-02
DAV:   2    -0.140766955520E+02   -0.19269E-03   -0.20521E-03    24   0.419E-01    0.369E-02
DAV:   3    -0.140766914364E+02    0.41156E-05   -0.15541E-05    24   0.404E-02
  878 T=  1714. E= -.13633587E+02 F= -.14076691E+02 E0= -.14076691E+02  EK= 0.44310E+00 SP= 0.00E+00 SK= 0.00E+00
       N       E                     dE             d eps       ncg     rms          rms(c)
DAV:   1    -0.141550258511E+02   -0.78330E-01   -0.71021E-02    32   0.188E+00    0.492E-02
DAV:   2    -0.141550949498E+02   -0.69099E-04   -0.10053E-03    16   0.320E-01    0.260E-02
DAV:   3    -0.141550978957E+02   -0.29459E-05   -0.11210E-05    24   0.349E-02
  879 T=  2007. E= -.13636372E+02 F= -.14155098E+02 E0= -.14155098E+02  EK= 0.51873E+00 SP= 0.00E+00 SK= 0.00E+00
       N       E                     dE             d eps       ncg     rms          rms(c)
DAV:   1    -0.141918429215E+02   -0.36748E-01   -0.94270E-02    16   0.189E+00    0.560E-02
DAV:   2    -0.141919672581E+02   -0.12434E-03   -0.17431E-03    24   0.458E-01    0.217E-02
DAV:   3    -0.141919710869E+02   -0.38287E-05   -0.84644E-06    16   0.283E-02
  880 T=  2146. E= -.13637192E+02 F= -.14191971E+02 E0= -.14191971E+02  EK= 0.55478E+00 SP= 0.00E+00 SK= 0.00E+00
       N       E                     dE             d eps       ncg     rms          rms(c)
DAV:   1    -0.141711198547E+02    0.20847E-01   -0.10204E-01    24   0.181E+00    0.525E-02
DAV:   2    -0.141711736629E+02   -0.53808E-04   -0.11678E-03    32   0.373E-01    0.184E-02
DAV:   3    -0.141711731738E+02    0.48911E-06   -0.74408E-06     8   0.249E-02
  881 T=  2069. E= -.13636180E+02 F= -.14171173E+02 E0= -.14171173E+02  EK= 0.53499E+00 SP= 0.00E+00 SK= 0.00E+00
       N       E                     dE             d eps       ncg     rms          rms(c)
DAV:   1    -0.141052583927E+02    0.65915E-01   -0.92804E-02    16   0.160E+00    0.484E-02
DAV:   2    -0.141053640894E+02   -0.10570E-03   -0.16210E-03    32   0.408E-01    0.232E-02
DAV:   3    -0.141053612403E+02    0.28492E-05   -0.16156E-05    16   0.312E-02
  882 T=  1822. E= -.13634228E+02 F= -.14105361E+02 E0= -.14105361E+02  EK= 0.47113E+00 SP= 0.00E+00 SK= 0.00E+00
       N       E                     dE             d eps       ncg     rms          rms(c)
DAV:   1    -0.140224176846E+02    0.82946E-01   -0.79553E-02    24   0.152E+00    0.268E-02
DAV:   2    -0.140225469640E+02   -0.12928E-03   -0.13565E-03    24   0.342E-01    0.266E-02
DAV:   3    -0.140225445951E+02    0.23688E-05   -0.84330E-06    16   0.227E-02
  883 T=  1510. E= -.13632291E+02 F= -.14022545E+02 E0= -.14022545E+02  EK= 0.39025E+00 SP= 0.00E+00 SK= 0.00E+00
       N       E                     dE             d eps       ncg     rms          rms(c)
DAV:   1    -0.139512246702E+02    0.71322E-01   -0.56744E-02    16   0.126E+00    0.252E-02
DAV:   2    -0.139513256304E+02   -0.10096E-03   -0.97351E-04    32   0.282E-01    0.265E-02
DAV:   3    -0.139513245221E+02    0.11083E-05   -0.26975E-06     8   0.138E-02
  884 T=  1240. E= -.13630872E+02 F= -.13951325E+02 E0= -.13951325E+02  EK= 0.32045E+00 SP= 0.00E+00 SK= 0.00E+00
       N       E                     dE             d eps       ncg     rms          rms(c)
DAV:   1    -0.139126046684E+02    0.38721E-01   -0.36307E-02    16   0.100E+00    0.185E-02
DAV:   2    -0.139126563198E+02   -0.51651E-04   -0.48685E-04    24   0.183E-01
  885 T=  1093. E= -.13630189E+02 F= -.13912656E+02 E0= -.13912656E+02  EK= 0.28247E+00 SP= 0.00E+00 SK= 0.00E+00
       N       E                     dE             d eps       ncg     rms          rms(c)
DAV:   1    -0.139166695389E+02   -0.40649E-02   -0.26741E-02    32   0.101E+00    0.292E-02
DAV:   2    -0.139167007773E+02   -0.31238E-04   -0.25909E-04    16   0.164E-01
  886 T=  1108. E= -.13630260E+02 F= -.13916701E+02 E0= -.13916701E+02  EK= 0.28644E+00 SP= 0.00E+00 SK= 0.00E+00
       N       E                     dE             d eps       ncg     rms          rms(c)
DAV:   1    -0.139619642814E+02   -0.45295E-01   -0.28253E-02    16   0.124E+00    0.156E-02
DAV:   2    -0.139620230411E+02   -0.58760E-04   -0.53530E-04    32   0.251E-01
  887 T=  1280. E= -.13631059E+02 F= -.13962023E+02 E0= -.13962023E+02  EK= 0.33096E+00 SP= 0.00E+00 SK= 0.00E+00
       N       E                     dE             d eps       ncg     rms          rms(c)
DAV:   1    -0.140355580332E+02   -0.73594E-01   -0.41530E-02    16   0.158E+00    0.222E-02
DAV:   2    -0.140356331802E+02   -0.75147E-04   -0.68260E-04    32   0.283E-01
  888 T=  1559. E= -.13632486E+02 F= -.14035633E+02 E0= -.14035633E+02  EK= 0.40315E+00 SP= 0.00E+00 SK= 0.00E+00
       N       E                     dE             d eps       ncg     rms          rms(c)
DAV:   1    -0.141138988557E+02   -0.78341E-01   -0.61204E-02    16   0.195E+00    0.483E-02
DAV:   2    -0.141140000789E+02   -0.10122E-03   -0.97320E-04    16   0.348E-01    0.402E-02
DAV:   3    -0.141140304474E+02   -0.30368E-04   -0.15599E-04    24   0.101E-01
  889 T=  1855. E= -.13634562E+02 F= -.14114030E+02 E0= -.14114030E+02  EK= 0.47947E+00 SP= 0.00E+00 SK= 0.00E+00
       N       E                     dE             d eps       ncg     rms          rms(c)
DAV:   1    -0.141671098782E+02   -0.53110E-01   -0.77825E-02    24   0.227E+00    0.247E-02
DAV:   2    -0.141672435027E+02   -0.13362E-03   -0.13016E-03    16   0.384E-01    0.211E-02
DAV:   3    -0.141672427821E+02    0.72060E-06   -0.12484E-05    32   0.317E-02
  890 T=  2053. E= -.13636487E+02 F= -.14167243E+02 E0= -.14167243E+02  EK= 0.53076E+00 SP= 0.00E+00 SK= 0.00E+00
       N       E                     dE             d eps       ncg     rms          rms(c)
DAV:   1    -0.141687555977E+02   -0.15121E-02   -0.79440E-02    16   0.244E+00    0.315E-02
DAV:   2    -0.141689264200E+02   -0.17082E-03   -0.17689E-03    32   0.461E-01    0.277E-02
DAV:   3    -0.141689226398E+02    0.37801E-05   -0.11221E-05    32   0.255E-02
  891 T=  2057. E= -.13637057E+02 F= -.14168923E+02 E0= -.14168923E+02  EK= 0.53187E+00 SP= 0.00E+00 SK= 0.00E+00
       N       E                     dE             d eps       ncg     rms          rms(c)
DAV:   1    -0.141113999186E+02    0.57527E-01   -0.67946E-02    16   0.245E+00    0.386E-02
DAV:   2    -0.141116019906E+02   -0.20207E-03   -0.21981E-03    16   0.483E-01    0.373E-02
DAV:   3    -0.141115946906E+02    0.72999E-05   -0.20876E-05    32   0.418E-02
  892 T=  1842. E= -.13635419E+02 F= -.14111595E+02 E0= -.14111595E+02  EK= 0.47618E+00 SP= 0.00E+00 SK= 0.00E+00
       N       E                     dE             d eps       ncg     rms          rms(c)
DAV:   1    -0.140212183835E+02    0.90384E-01   -0.44927E-02    16   0.236E+00    0.927E-02
DAV:   2    -0.140212198309E+02   -0.14473E-05   -0.23442E-03    16   0.526E-01    0.254E-02
DAV:   3    -0.140212234923E+02   -0.36614E-05   -0.21365E-05    32   0.468E-02
  893 T=  1506. E= -.13631905E+02 F= -.14021223E+02 E0= -.14021223E+02  EK= 0.38932E+00 SP= 0.00E+00 SK= 0.00E+00
       N       E                     dE             d eps       ncg     rms          rms(c)
DAV:   1    -0.139517205531E+02    0.69499E-01   -0.24825E-02    16   0.218E+00    0.678E-02
DAV:   2    -0.139518529658E+02   -0.13241E-03   -0.18223E-03    16   0.485E-01    0.344E-02
DAV:   3    -0.139518676888E+02   -0.14723E-04   -0.15945E-05    32   0.420E-02
  894 T=  1250. E= -.13628730E+02 F= -.13951868E+02 E0= -.13951868E+02  EK= 0.32314E+00 SP= 0.00E+00 SK= 0.00E+00
       N       E                     dE             d eps       ncg     rms          rms(c)
DAV:   1    -0.139514696387E+02    0.38333E-03   -0.14217E-02    32   0.174E+00    0.513E-02
DAV:   2    -0.139515531855E+02   -0.83547E-04   -0.12037E-03    16   0.342E-01    0.259E-02
DAV:   3    -0.139515615603E+02   -0.83748E-05   -0.10535E-05    32   0.342E-02
  895 T=  1249. E= -.13628546E+02 F= -.13951562E+02 E0= -.13951562E+02  EK= 0.32302E+00 SP= 0.00E+00 SK= 0.00E+00
       N       E                     dE             d eps       ncg     rms          rms(c)
DAV:   1    -0.140231017173E+02   -0.71549E-01   -0.25862E-02    16   0.158E+00    0.392E-02
DAV:   2    -0.140232468473E+02   -0.14513E-03   -0.15398E-03    32   0.371E-01    0.315E-02
DAV:   3    -0.140232448473E+02    0.20000E-05   -0.93049E-06    24   0.297E-02
  896 T=  1515. E= -.13631565E+02 F= -.14023245E+02 E0= -.14023245E+02  EK= 0.39168E+00 SP= 0.00E+00 SK= 0.00E+00
       N       E                     dE             d eps       ncg     rms          rms(c)
DAV:   1    -0.141215497464E+02   -0.98303E-01   -0.54310E-02    16   0.177E+00    0.458E-02
DAV:   2    -0.141216605358E+02   -0.11079E-03   -0.14050E-03    32   0.416E-01    0.276E-02
DAV:   3    -0.141216615446E+02   -0.10087E-05   -0.66844E-06    16   0.250E-02
  897 T=  1881. E= -.13635261E+02 F= -.14121662E+02 E0= -.14121662E+02  EK= 0.48640E+00 SP= 0.00E+00 SK= 0.00E+00
       N       E                     dE             d eps       ncg     rms          rms(c)
DAV:   1    -0.141897313024E+02   -0.68071E-01   -0.83674E-02    24   0.199E+00    0.499E-02
DAV:   2    -0.141898146465E+02   -0.83344E-04   -0.12862E-03    16   0.404E-01    0.210E-02
DAV:   3    -0.141898175856E+02   -0.29390E-05   -0.11742E-05    32   0.353E-02
  898 T=  2138. E= -.13637099E+02 F= -.14189818E+02 E0= -.14189818E+02  EK= 0.55272E+00 SP= 0.00E+00 SK= 0.00E+00
       N       E                     dE             d eps       ncg     rms          rms(c)
DAV:   1    -0.141966700251E+02   -0.68554E-02   -0.96819E-02    16   0.207E+00    0.654E-02
DAV:   2    -0.141967663355E+02   -0.96310E-04   -0.18418E-03    32   0.487E-01    0.251E-02
DAV:   3    -0.141967671844E+02   -0.84896E-06   -0.15773E-05    16   0.330E-02
  899 T=  2167. E= -.13636608E+02 F= -.14196767E+02 E0= -.14196767E+02  EK= 0.56016E+00 SP= 0.00E+00 SK= 0.00E+00
       N       E                     dE             d eps       ncg     rms          rms(c)
DAV:   1    -0.141467085053E+02    0.50058E-01   -0.91050E-02    16   0.190E+00    0.573E-02
DAV:   2    -0.141468215333E+02   -0.11303E-03   -0.19097E-03    32   0.462E-01    0.216E-02
DAV:   3    -0.141468180892E+02    0.34441E-05   -0.19419E-05    16   0.342E-02
  900 T=  1981. E= -.13634805E+02 F= -.14146818E+02 E0= -.14146818E+02  EK= 0.51201E+00 SP= 0.00E+00 SK= 0.00E+00
       N       E                     dE             d eps       ncg     rms          rms(c)
DAV:   1    -0.140660361052E+02    0.80785E-01   -0.83138E-02    32   0.171E+00    0.280E-02
DAV:   2    -0.140661295121E+02   -0.93407E-04   -0.99230E-04    16   0.304E-01
  901 T=  1677. E= -.13632712E+02 F= -.14066130E+02 E0= -.14066130E+02  EK= 0.43342E+00 SP= 0.00E+00 SK= 0.00E+00
       N       E                     dE             d eps       ncg     rms          rms(c)
DAV:   1    -0.139855414447E+02    0.80495E-01   -0.64361E-02    16   0.151E+00    0.703E-02
DAV:   2    -0.139856914961E+02   -0.15005E-03   -0.14387E-03    32   0.343E-01    0.521E-02
DAV:   3    -0.139857164784E+02   -0.24982E-04   -0.15527E-04    16   0.946E-02
  902 T=  1372. E= -.13631056E+02 F= -.13985716E+02 E0= -.13985716E+02  EK= 0.35466E+00 SP= 0.00E+00 SK= 0.00E+00
       N       E                     dE             d eps       ncg     rms          rms(c)
DAV:   1    -0.139309877575E+02    0.54704E-01   -0.39350E-02    32   0.117E+00    0.301E-02
DAV:   2    -0.139310265751E+02   -0.38818E-04   -0.38439E-04    32   0.184E-01
  903 T=  1164. E= -.13630106E+02 F= -.13931027E+02 E0= -.13931027E+02  EK= 0.30092E+00 SP= 0.00E+00 SK= 0.00E+00
       N       E                     dE             d eps       ncg     rms          rms(c)
DAV:   1    -0.139169140414E+02    0.14074E-01   -0.21953E-02    16   0.101E+00    0.331E-02
DAV:   2    -0.139169670138E+02   -0.52972E-04   -0.56693E-04    32   0.232E-01
  904 T=  1111. E= -.13629865E+02 F= -.13916967E+02 E0= -.13916967E+02  EK= 0.28710E+00 SP= 0.00E+00 SK= 0.00E+00
       N       E                     dE             d eps       ncg     rms          rms(c)
DAV:   1    -0.139466868735E+02   -0.29773E-01   -0.17004E-02    32   0.111E+00    0.208E-02
DAV:   2    -0.139467178294E+02   -0.30956E-04   -0.20554E-04    16   0.156E-01
  905 T=  1224. E= -.13630399E+02 F= -.13946718E+02 E0= -.13946718E+02  EK= 0.31632E+00 SP= 0.00E+00 SK= 0.00E+00
       N       E                     dE             d eps       ncg     rms          rms(c)
DAV:   1    -0.140115126043E+02   -0.64826E-01   -0.24407E-02    32   0.135E+00    0.214E-02
DAV:   2    -0.140115604847E+02   -0.47880E-04   -0.28901E-04    16   0.189E-01
  906 T=  1470. E= -.13631657E+02 F= -.14011560E+02 E0= -.14011560E+02  EK= 0.37990E+00 SP= 0.00E+00 SK= 0.00E+00
       N       E                     dE             d eps       ncg     rms          rms(c)
DAV:   1    -0.140917231415E+02   -0.80211E-01   -0.39326E-02    32   0.165E+00    0.147E-02
DAV:   2    -0.140917961759E+02   -0.73034E-04   -0.58027E-04    16   0.263E-01
  907 T=  1773. E= -.13633452E+02 F= -.14091796E+02 E0= -.14091796E+02  EK= 0.45834E+00 SP= 0.00E+00 SK= 0.00E+00
       N       E                     dE             d eps       ncg     rms          rms(c)
DAV:   1    -0.141593922971E+02   -0.67669E-01   -0.59256E-02    32   0.196E+00    0.389E-02
DAV:   2    -0.141594743804E+02   -0.82083E-04   -0.76899E-04    16   0.303E-01
  908 T=  2028. E= -.13635271E+02 F= -.14159474E+02 E0= -.14159474E+02  EK= 0.52420E+00 SP= 0.00E+00 SK= 0.00E+00
       N       E                     dE             d eps       ncg     rms          rms(c)
DAV:   1    -0.141859145321E+02   -0.26522E-01   -0.67247E-02    32   0.214E+00    0.381E-02
DAV:   2    -0.141860176392E+02   -0.10311E-03   -0.11347E-03    32   0.341E-01    0.253E-02
DAV:   3    -0.141860275241E+02   -0.98849E-05   -0.94307E-06    32   0.244E-02
  909 T=  2126. E= -.13636398E+02 F= -.14186028E+02 E0= -.14186028E+02  EK= 0.54963E+00 SP= 0.00E+00 SK= 0.00E+00
       N       E                     dE             d eps       ncg     rms          rms(c)
DAV:   1    -0.141553283624E+02    0.30689E-01   -0.66657E-02    32   0.226E+00    0.329E-02
DAV:   2    -0.141554734702E+02   -0.14511E-03   -0.13636E-03    32   0.378E-01    0.197E-02
DAV:   3    -0.141554777396E+02   -0.42694E-05   -0.10787E-05    16   0.255E-02
  910 T=  2010. E= -.13635885E+02 F= -.14155478E+02 E0= -.14155478E+02  EK= 0.51959E+00 SP= 0.00E+00 SK= 0.00E+00
       N       E                     dE             d eps       ncg     rms          rms(c)
DAV:   1    -0.140786651830E+02    0.76808E-01   -0.45942E-02    16   0.218E+00    0.618E-02
DAV:   2    -0.140787963966E+02   -0.13121E-03   -0.19990E-03    32   0.481E-01    0.318E-02
DAV:   3    -0.140788020762E+02   -0.56796E-05   -0.15333E-05    16   0.328E-02
  911 T=  1723. E= -.13633354E+02 F= -.14078802E+02 E0= -.14078802E+02  EK= 0.44545E+00 SP= 0.00E+00 SK= 0.00E+00
       N       E                     dE             d eps       ncg     rms          rms(c)
DAV:   1    -0.139966798335E+02    0.82117E-01   -0.26962E-02    32   0.212E+00    0.721E-02
DAV:   2    -0.139967275090E+02   -0.47675E-04   -0.15547E-03    32   0.427E-01    0.259E-02
DAV:   3    -0.139967334744E+02   -0.59653E-05   -0.11140E-05    32   0.345E-02
  912 T=  1418. E= -.13630147E+02 F= -.13996733E+02 E0= -.13996733E+02  EK= 0.36659E+00 SP= 0.00E+00 SK= 0.00E+00
       N       E                     dE             d eps       ncg     rms          rms(c)
DAV:   1    -0.139592554876E+02    0.37472E-01   -0.16113E-02    32   0.196E+00    0.596E-02
DAV:   2    -0.139593609817E+02   -0.10549E-03   -0.13261E-03    16   0.387E-01    0.292E-02
DAV:   3    -0.139593795153E+02   -0.18534E-04   -0.15153E-05    32   0.425E-02
  913 T=  1280. E= -.13628485E+02 F= -.13959380E+02 E0= -.13959380E+02  EK= 0.33089E+00 SP= 0.00E+00 SK= 0.00E+00
       N       E                     dE             d eps       ncg     rms          rms(c)
DAV:   1    -0.139915734687E+02   -0.32212E-01   -0.22804E-02    16   0.176E+00    0.517E-02
DAV:   2    -0.139917455640E+02   -0.17210E-03   -0.18897E-03    32   0.388E-01    0.309E-02
DAV:   3    -0.139917512331E+02   -0.56690E-05   -0.14066E-05    32   0.428E-02
  914 T=  1399. E= -.13629974E+02 F= -.13991751E+02 E0= -.13991751E+02  EK= 0.36178E+00 SP= 0.00E+00 SK= 0.00E+00
       N       E                     dE             d eps       ncg     rms          rms(c)
DAV:   1    -0.140712913927E+02   -0.79546E-01   -0.46033E-02    16   0.163E+00    0.468E-02
DAV:   2    -0.140714423620E+02   -0.15097E-03   -0.16875E-03    32   0.392E-01    0.287E-02
DAV:   3    -0.140714444667E+02   -0.21047E-05   -0.67955E-06    32   0.299E-02
  915 T=  1694. E= -.13633559E+02 F= -.14071444E+02 E0= -.14071444E+02  EK= 0.43789E+00 SP= 0.00E+00 SK= 0.00E+00
       N       E                     dE             d eps       ncg     rms          rms(c)
DAV:   1    -0.141443150747E+02   -0.72873E-01   -0.76994E-02    16   0.166E+00    0.496E-02
DAV:   2    -0.141444371140E+02   -0.12204E-03   -0.15497E-03    32   0.408E-01    0.199E-02
DAV:   3    -0.141444433749E+02   -0.62609E-05   -0.50499E-06    16   0.226E-02
  916 T=  1966. E= -.13636310E+02 F= -.14144443E+02 E0= -.14144443E+02  EK= 0.50813E+00 SP= 0.00E+00 SK= 0.00E+00
       N       E                     dE             d eps       ncg     rms          rms(c)
DAV:   1    -0.141670031188E+02   -0.22566E-01   -0.99377E-02    32   0.171E+00    0.481E-02
DAV:   2    -0.141670368421E+02   -0.33723E-04   -0.79515E-04    16   0.298E-01
  917 T=  2052. E= -.13636636E+02 F= -.14167037E+02 E0= -.14167037E+02  EK= 0.53040E+00 SP= 0.00E+00 SK= 0.00E+00
       N       E                     dE             d eps       ncg     rms          rms(c)
DAV:   1    -0.141311051236E+02    0.35898E-01   -0.10132E-01    16   0.163E+00    0.595E-02
DAV:   2    -0.141311974256E+02   -0.92302E-04   -0.13322E-03    32   0.394E-01    0.281E-02
DAV:   3    -0.141311974652E+02   -0.39550E-07   -0.19301E-05    32   0.375E-02
  918 T=  1919. E= -.13635122E+02 F= -.14131197E+02 E0= -.14131197E+02  EK= 0.49608E+00 SP= 0.00E+00 SK= 0.00E+00
       N       E                     dE             d eps       ncg     rms          rms(c)
DAV:   1    -0.140581745979E+02    0.73023E-01   -0.89561E-02    32   0.144E+00    0.402E-02
DAV:   2    -0.140582220377E+02   -0.47440E-04   -0.70262E-04    24   0.269E-01
  919 T=  1645. E= -.13632975E+02 F= -.14058222E+02 E0= -.14058222E+02  EK= 0.42525E+00 SP= 0.00E+00 SK= 0.00E+00
       N       E                     dE             d eps       ncg     rms          rms(c)
DAV:   1    -0.139795204504E+02    0.78654E-01   -0.74270E-02    32   0.146E+00    0.644E-02
DAV:   2    -0.139795774832E+02   -0.57033E-04   -0.54511E-04    32   0.204E-01
  920 T=  1348. E= -.13631038E+02 F= -.13979577E+02 E0= -.13979577E+02  EK= 0.34854E+00 SP= 0.00E+00 SK= 0.00E+00
       N       E                     dE             d eps       ncg     rms          rms(c)
DAV:   1    -0.139228812933E+02    0.56639E-01   -0.44308E-02    16   0.122E+00    0.167E-02
DAV:   2    -0.139230174937E+02   -0.13620E-03   -0.12448E-03    32   0.306E-01    0.231E-02
DAV:   3    -0.139230196136E+02   -0.21200E-05   -0.67163E-06    16   0.192E-02
  921 T=  1134. E= -.13629851E+02 F= -.13923020E+02 E0= -.13923020E+02  EK= 0.29317E+00 SP= 0.00E+00 SK= 0.00E+00
       N       E                     dE             d eps       ncg     rms          rms(c)
DAV:   1    -0.139058028014E+02    0.17215E-01   -0.23049E-02    16   0.113E+00    0.228E-02
DAV:   2    -0.139058934431E+02   -0.90642E-04   -0.79565E-04    32   0.275E-01
  922 T=  1069. E= -.13629478E+02 F= -.13905893E+02 E0= -.13905893E+02  EK= 0.27642E+00 SP= 0.00E+00 SK= 0.00E+00
       N       E                     dE             d eps       ncg     rms          rms(c)
DAV:   1    -0.139334609268E+02   -0.27658E-01   -0.12876E-02    16   0.122E+00    0.211E-02
DAV:   2    -0.139335293406E+02   -0.68414E-04   -0.49206E-04    32   0.253E-01
  923 T=  1175. E= -.13629886E+02 F= -.13933529E+02 E0= -.13933529E+02  EK= 0.30364E+00 SP= 0.00E+00 SK= 0.00E+00
       N       E                     dE             d eps       ncg     rms          rms(c)
DAV:   1    -0.139992449672E+02   -0.65784E-01   -0.16484E-02    16   0.146E+00    0.281E-02
DAV:   2    -0.139993052937E+02   -0.60327E-04   -0.38527E-04    24   0.227E-01
  924 T=  1425. E= -.13630976E+02 F= -.13999305E+02 E0= -.13999305E+02  EK= 0.36833E+00 SP= 0.00E+00 SK= 0.00E+00
       N       E                     dE             d eps       ncg     rms          rms(c)
DAV:   1    -0.140854893269E+02   -0.86244E-01   -0.30082E-02    16   0.178E+00    0.235E-02
DAV:   2    -0.140855727867E+02   -0.83460E-04   -0.51416E-04    32   0.258E-01
  925 T=  1752. E= -.13632613E+02 F= -.14085573E+02 E0= -.14085573E+02  EK= 0.45296E+00 SP= 0.00E+00 SK= 0.00E+00
       N       E                     dE             d eps       ncg     rms          rms(c)
DAV:   1    -0.141656406911E+02   -0.80151E-01   -0.48225E-02    16   0.213E+00    0.277E-02
DAV:   2    -0.141657941731E+02   -0.15348E-03   -0.11303E-03    24   0.361E-01    0.328E-02
DAV:   3    -0.141657967374E+02   -0.25643E-05   -0.43995E-06    16   0.174E-02
  926 T=  2055. E= -.13634459E+02 F= -.14165797E+02 E0= -.14165797E+02  EK= 0.53134E+00 SP= 0.00E+00 SK= 0.00E+00
       N       E                     dE             d eps       ncg     rms          rms(c)
DAV:   1    -0.142100790205E+02   -0.44285E-01   -0.60130E-02    24   0.240E+00    0.310E-02
DAV:   2    -0.142102027654E+02   -0.12374E-03   -0.11117E-03    16   0.378E-01    0.170E-02
DAV:   3    -0.142102140496E+02   -0.11284E-04   -0.10209E-05    24   0.299E-02
  927 T=  2221. E= -.13635935E+02 F= -.14210214E+02 E0= -.14210214E+02  EK= 0.57428E+00 SP= 0.00E+00 SK= 0.00E+00
       N       E                     dE             d eps       ncg     rms          rms(c)
DAV:   1    -0.141961412993E+02    0.14061E-01   -0.67013E-02    16   0.266E+00    0.391E-02
DAV:   2    -0.141964257312E+02   -0.28443E-03   -0.28248E-03    24   0.542E-01    0.436E-02
DAV:   3    -0.141964177949E+02    0.79363E-05   -0.26563E-05    24   0.397E-02
  928 T=  2168. E= -.13635969E+02 F= -.14196418E+02 E0= -.14196418E+02  EK= 0.56045E+00 SP= 0.00E+00 SK= 0.00E+00
       N       E                     dE             d eps       ncg     rms          rms(c)
DAV:   1    -0.141241520911E+02    0.72274E-01   -0.50826E-02    16   0.253E+00    0.609E-02
DAV:   2    -0.141242637511E+02   -0.11166E-03   -0.17081E-03    16   0.450E-01    0.364E-02
DAV:   3    -0.141242661859E+02   -0.24348E-05   -0.16055E-05    24   0.402E-02
  929 T=  1897. E= -.13633926E+02 F= -.14124266E+02 E0= -.14124266E+02  EK= 0.49034E+00 SP= 0.00E+00 SK= 0.00E+00
       N       E                     dE             d eps       ncg     rms          rms(c)
DAV:   1    -0.140262243571E+02    0.98039E-01   -0.39624E-02    24   0.264E+00    0.101E-01
DAV:   2    -0.140263454218E+02   -0.12106E-03   -0.24276E-03    16   0.531E-01    0.488E-02
DAV:   3    -0.140263704599E+02   -0.25038E-04   -0.35391E-05    24   0.653E-02
  930 T=  1532. E= -.13630304E+02 F= -.14026370E+02 E0= -.14026370E+02  EK= 0.39607E+00 SP= 0.00E+00 SK= 0.00E+00
       N       E                     dE             d eps       ncg     rms          rms(c)
DAV:   1    -0.139590667551E+02    0.67279E-01   -0.22106E-02    16   0.220E+00    0.583E-02
DAV:   2    -0.139592381073E+02   -0.17135E-03   -0.17777E-03    24   0.488E-01    0.295E-02
DAV:   3    -0.139592718550E+02   -0.33748E-04   -0.63015E-06    16   0.253E-02
  931 T=  1284. E= -.13627447E+02 F= -.13959272E+02 E0= -.13959272E+02  EK= 0.33183E+00 SP= 0.00E+00 SK= 0.00E+00
       N       E                     dE             d eps       ncg     rms          rms(c)
DAV:   1    -0.139661028757E+02   -0.68648E-02   -0.22194E-02    24   0.156E+00    0.488E-02
DAV:   2    -0.139661463804E+02   -0.43505E-04   -0.51505E-04    16   0.257E-01
  932 T=  1308. E= -.13628111E+02 F= -.13966146E+02 E0= -.13966146E+02  EK= 0.33804E+00 SP= 0.00E+00 SK= 0.00E+00
       N       E                     dE             d eps       ncg     rms          rms(c)
DAV:   1    -0.140377653886E+02   -0.71663E-01   -0.43707E-02    16   0.126E+00    0.528E-02
DAV:   2    -0.140378698061E+02   -0.10442E-03   -0.96998E-04    24   0.305E-01    0.336E-02
DAV:   3    -0.140378891167E+02   -0.19311E-04   -0.11930E-05    24   0.326E-02
  933 T=  1571. E= -.13631817E+02 F= -.14037889E+02 E0= -.14037889E+02  EK= 0.40607E+00 SP= 0.00E+00 SK= 0.00E+00
       N       E                     dE             d eps       ncg     rms          rms(c)
DAV:   1    -0.141195657923E+02   -0.81696E-01   -0.77674E-02    16   0.148E+00    0.504E-02
DAV:   2    -0.141196246852E+02   -0.58893E-04   -0.10746E-03    24   0.351E-01    0.144E-02
DAV:   3    -0.141196302097E+02   -0.55245E-05   -0.43568E-06    24   0.195E-02
  934 T=  1874. E= -.13635244E+02 F= -.14119630E+02 E0= -.14119630E+02  EK= 0.48439E+00 SP= 0.00E+00 SK= 0.00E+00
       N       E                     dE             d eps       ncg     rms          rms(c)
DAV:   1    -0.141580334479E+02   -0.38409E-01   -0.10336E-01    24   0.175E+00    0.541E-02
DAV:   2    -0.141581067776E+02   -0.73330E-04   -0.12742E-03    24   0.394E-01    0.180E-02
DAV:   3    -0.141581133329E+02   -0.65553E-05   -0.97084E-06    24   0.270E-02
  935 T=  2019. E= -.13636123E+02 F= -.14158113E+02 E0= -.14158113E+02  EK= 0.52199E+00 SP= 0.00E+00 SK= 0.00E+00
       N       E                     dE             d eps       ncg     rms          rms(c)
DAV:   1    -0.141358004921E+02    0.22306E-01   -0.10835E-01    16   0.181E+00    0.568E-02
DAV:   2    -0.141358852897E+02   -0.84798E-04   -0.15750E-03    24   0.442E-01    0.180E-02
DAV:   3    -0.141358867673E+02   -0.14776E-05   -0.12059E-05    24   0.306E-02
  936 T=  1938. E= -.13634883E+02 F= -.14135887E+02 E0= -.14135887E+02  EK= 0.50100E+00 SP= 0.00E+00 SK= 0.00E+00
       N       E                     dE             d eps       ncg     rms          rms(c)
DAV:   1    -0.140686730459E+02    0.67212E-01   -0.94702E-02    24   0.161E+00    0.414E-02
DAV:   2    -0.140687703221E+02   -0.97276E-04   -0.13945E-03    24   0.376E-01    0.183E-02
DAV:   3    -0.140687699336E+02    0.38853E-06   -0.11031E-05    24   0.276E-02
  937 T=  1686. E= -.13632817E+02 F= -.14068770E+02 E0= -.14068770E+02  EK= 0.43595E+00 SP= 0.00E+00 SK= 0.00E+00
       N       E                     dE             d eps       ncg     rms          rms(c)
DAV:   1    -0.139867380350E+02    0.82032E-01   -0.76483E-02    24   0.145E+00    0.183E-02
DAV:   2    -0.139868603562E+02   -0.12232E-03   -0.11914E-03    24   0.328E-01    0.212E-02
DAV:   3    -0.139868607271E+02   -0.37089E-06   -0.26090E-06    16   0.134E-02
  938 T=  1377. E= -.13630878E+02 F= -.13986861E+02 E0= -.13986861E+02  EK= 0.35598E+00 SP= 0.00E+00 SK= 0.00E+00
       N       E                     dE             d eps       ncg     rms          rms(c)
DAV:   1    -0.139187565327E+02    0.68104E-01   -0.49206E-02    16   0.123E+00    0.285E-02
DAV:   2    -0.139188705014E+02   -0.11397E-03   -0.11709E-03    24   0.316E-01    0.266E-02
DAV:   3    -0.139188717289E+02   -0.12274E-05   -0.78945E-06    16   0.216E-02
  939 T=  1119. E= -.13629538E+02 F= -.13918872E+02 E0= -.13918872E+02  EK= 0.28933E+00 SP= 0.00E+00 SK= 0.00E+00
       N       E                     dE             d eps       ncg     rms          rms(c)
DAV:   1    -0.138847407339E+02    0.34130E-01   -0.24772E-02    16   0.100E+00    0.267E-02
DAV:   2    -0.138848028920E+02   -0.62158E-04   -0.65961E-04    24   0.255E-01
  940 T=   990. E= -.13628936E+02 F= -.13884803E+02 E0= -.13884803E+02  EK= 0.25587E+00 SP= 0.00E+00 SK= 0.00E+00
       N       E                     dE             d eps       ncg     rms          rms(c)
DAV:   1    -0.138935540662E+02   -0.88133E-02   -0.10906E-02    24   0.984E-01    0.182E-02
DAV:   2    -0.138935950059E+02   -0.40940E-04   -0.35198E-04    24   0.208E-01
  941 T=  1023. E= -.13629060E+02 F= -.13893595E+02 E0= -.13893595E+02  EK= 0.26453E+00 SP= 0.00E+00 SK= 0.00E+00
       N       E                     dE             d eps       ncg     rms          rms(c)
DAV:   1    -0.139430104494E+02   -0.49456E-01   -0.11771E-02    16   0.117E+00    0.187E-02
DAV:   2    -0.139430386875E+02   -0.28238E-04   -0.21351E-04    16   0.171E-01
  942 T=  1211. E= -.13629873E+02 F= -.13943039E+02 E0= -.13943039E+02  EK= 0.31317E+00 SP= 0.00E+00 SK= 0.00E+00
       N       E                     dE             d eps       ncg     rms          rms(c)
DAV:   1    -0.140203591521E+02   -0.77349E-01   -0.24461E-02    16   0.146E+00    0.151E-02
DAV:   2    -0.140203946087E+02   -0.35457E-04   -0.32610E-04    16   0.204E-01
  943 T=  1505. E= -.13631243E+02 F= -.14020395E+02 E0= -.14020395E+02  EK= 0.38915E+00 SP= 0.00E+00 SK= 0.00E+00
       N       E                     dE             d eps       ncg     rms          rms(c)
DAV:   1    -0.141039510756E+02   -0.83592E-01   -0.43347E-02    24   0.175E+00    0.237E-02
DAV:   2    -0.141040114434E+02   -0.60368E-04   -0.53987E-04    16   0.246E-01
  944 T=  1822. E= -.13632890E+02 F= -.14104011E+02 E0= -.14104011E+02  EK= 0.47112E+00 SP= 0.00E+00 SK= 0.00E+00
       N       E                     dE             d eps       ncg     rms          rms(c)
DAV:   1    -0.141672553496E+02   -0.63304E-01   -0.62108E-02    16   0.200E+00    0.292E-02
DAV:   2    -0.141673800629E+02   -0.12471E-03   -0.11117E-03    32   0.344E-01    0.332E-02
DAV:   3    -0.141673810214E+02   -0.95847E-06   -0.48110E-06    16   0.186E-02
  945 T=  2062. E= -.13634360E+02 F= -.14167381E+02 E0= -.14167381E+02  EK= 0.53302E+00 SP= 0.00E+00 SK= 0.00E+00
       N       E                     dE             d eps       ncg     rms          rms(c)
DAV:   1    -0.141869903163E+02   -0.19610E-01   -0.69182E-02    16   0.210E+00    0.558E-02
DAV:   2    -0.141871713128E+02   -0.18100E-03   -0.22877E-03    24   0.459E-01    0.257E-02
DAV:   3    -0.141871669108E+02    0.44020E-05   -0.29094E-05    16   0.391E-02
  946 T=  2136. E= -.13635032E+02 F= -.14187167E+02 E0= -.14187167E+02  EK= 0.55214E+00 SP= 0.00E+00 SK= 0.00E+00
       N       E                     dE             d eps       ncg     rms          rms(c)
DAV:   1    -0.141542882487E+02    0.32883E-01   -0.67225E-02    24   0.213E+00    0.374E-02
DAV:   2    -0.141544264987E+02   -0.13825E-03   -0.13937E-03    24   0.408E-01    0.341E-02
DAV:   3    -0.141544285967E+02   -0.20980E-05   -0.84635E-06    24   0.249E-02
  947 T=  2013. E= -.13634083E+02 F= -.14154429E+02 E0= -.14154429E+02  EK= 0.52035E+00 SP= 0.00E+00 SK= 0.00E+00
       N       E                     dE             d eps       ncg     rms          rms(c)
DAV:   1    -0.140851078426E+02    0.69319E-01   -0.49093E-02    16   0.200E+00    0.713E-02
DAV:   2    -0.140852056925E+02   -0.97850E-04   -0.21242E-03    24   0.483E-01    0.232E-02
DAV:   3    -0.140852044589E+02    0.12337E-05   -0.16213E-05    16   0.376E-02
  948 T=  1755. E= -.13631571E+02 F= -.14085204E+02 E0= -.14085204E+02  EK= 0.45363E+00 SP= 0.00E+00 SK= 0.00E+00
       N       E                     dE             d eps       ncg     rms          rms(c)
DAV:   1    -0.140196255256E+02    0.65580E-01   -0.31490E-02    24   0.186E+00    0.550E-02
DAV:   2    -0.140197202138E+02   -0.94688E-04   -0.13130E-03    16   0.386E-01    0.251E-02
DAV:   3    -0.140197294126E+02   -0.91988E-05   -0.10935E-05    24   0.356E-02
  949 T=  1513. E= -.13628596E+02 F= -.14019729E+02 E0= -.14019729E+02  EK= 0.39113E+00 SP= 0.00E+00 SK= 0.00E+00
       N       E                     dE             d eps       ncg     rms          rms(c)
DAV:   1    -0.140027531201E+02    0.16967E-01   -0.22842E-02    16   0.164E+00    0.593E-02
DAV:   2    -0.140028851049E+02   -0.13198E-03   -0.15598E-03    24   0.360E-01    0.288E-02
DAV:   3    -0.140028976721E+02   -0.12567E-04   -0.12169E-05    24   0.383E-02
  950 T=  1452. E= -.13627581E+02 F= -.14002898E+02 E0= -.14002898E+02  EK= 0.37532E+00 SP= 0.00E+00 SK= 0.00E+00
       N       E                     dE             d eps       ncg     rms          rms(c)
DAV:   1    -0.140486914119E+02   -0.45806E-01   -0.29673E-02    16   0.147E+00    0.438E-02
DAV:   2    -0.140488182048E+02   -0.12679E-03   -0.13868E-03    16   0.350E-01    0.290E-02
DAV:   3    -0.140488185282E+02   -0.32338E-06   -0.12646E-05    24   0.374E-02
  951 T=  1620. E= -.13629897E+02 F= -.14048819E+02 E0= -.14048819E+02  EK= 0.41892E+00 SP= 0.00E+00 SK= 0.00E+00
       N       E                     dE             d eps       ncg     rms          rms(c)
DAV:   1    -0.141231049585E+02   -0.74287E-01   -0.53598E-02    32   0.153E+00    0.381E-02
DAV:   2    -0.141231762878E+02   -0.71329E-04   -0.82427E-04    16   0.304E-01
  952 T=  1894. E= -.13633500E+02 F= -.14123176E+02 E0= -.14123176E+02  EK= 0.48968E+00 SP= 0.00E+00 SK= 0.00E+00
       N       E                     dE             d eps       ncg     rms          rms(c)
DAV:   1    -0.141711781927E+02   -0.48073E-01   -0.78340E-02    16   0.173E+00    0.577E-02
DAV:   2    -0.141712782076E+02   -0.10001E-03   -0.11287E-03    24   0.390E-01    0.334E-02
DAV:   3    -0.141712953268E+02   -0.17119E-04   -0.15177E-05    24   0.394E-02
  953 T=  2073. E= -.13635419E+02 F= -.14171295E+02 E0= -.14171295E+02  EK= 0.53588E+00 SP= 0.00E+00 SK= 0.00E+00
       N       E                     dE             d eps       ncg     rms          rms(c)
DAV:   1    -0.141615108927E+02    0.97673E-02   -0.89686E-02    16   0.184E+00    0.529E-02
DAV:   2    -0.141616056667E+02   -0.94774E-04   -0.15416E-03    32   0.438E-01    0.167E-02
DAV:   3    -0.141616071717E+02   -0.15050E-05   -0.81593E-06    16   0.243E-02
  954 T=  2038. E= -.13634869E+02 F= -.14161607E+02 E0= -.14161607E+02  EK= 0.52674E+00 SP= 0.00E+00 SK= 0.00E+00
       N       E                     dE             d eps       ncg     rms          rms(c)
DAV:   1    -0.140994624696E+02    0.62143E-01   -0.82577E-02    16   0.175E+00    0.434E-02
DAV:   2    -0.140995843048E+02   -0.12184E-03   -0.15113E-03    32   0.428E-01    0.195E-02
DAV:   3    -0.140995864586E+02   -0.21538E-05   -0.69338E-06    16   0.254E-02
  955 T=  1805. E= -.13632908E+02 F= -.14099586E+02 E0= -.14099586E+02  EK= 0.46668E+00 SP= 0.00E+00 SK= 0.00E+00
       N       E                     dE             d eps       ncg     rms          rms(c)
DAV:   1    -0.140130163634E+02    0.86568E-01   -0.68067E-02    24   0.156E+00    0.224E-02
DAV:   2    -0.140131293960E+02   -0.11303E-03   -0.11869E-03    24   0.348E-01    0.196E-02
DAV:   3    -0.140131290592E+02    0.33679E-06   -0.34411E-06    24   0.159E-02
  956 T=  1479. E= -.13630820E+02 F= -.14013129E+02 E0= -.14013129E+02  EK= 0.38231E+00 SP= 0.00E+00 SK= 0.00E+00
       N       E                     dE             d eps       ncg     rms          rms(c)
DAV:   1    -0.139335015290E+02    0.79628E-01   -0.46597E-02    24   0.147E+00    0.273E-02
DAV:   2    -0.139336298098E+02   -0.12828E-03   -0.12675E-03    16   0.327E-01    0.220E-02
DAV:   3    -0.139336358892E+02   -0.60794E-05   -0.75424E-06    32   0.249E-02
  957 T=  1178. E= -.13629217E+02 F= -.13933636E+02 E0= -.13933636E+02  EK= 0.30442E+00 SP= 0.00E+00 SK= 0.00E+00
       N       E                     dE             d eps       ncg     rms          rms(c)
DAV:   1    -0.138851329501E+02    0.48497E-01   -0.23913E-02    16   0.123E+00    0.187E-02
DAV:   2    -0.138852421843E+02   -0.10923E-03   -0.10368E-03    24   0.313E-01    0.221E-02
DAV:   3    -0.138852430444E+02   -0.86012E-06   -0.24435E-06    16   0.132E-02
  958 T=   994. E= -.13628371E+02 F= -.13885243E+02 E0= -.13885243E+02  EK= 0.25687E+00 SP= 0.00E+00 SK= 0.00E+00
       N       E                     dE             d eps       ncg     rms          rms(c)
DAV:   1    -0.138805463977E+02    0.46958E-02   -0.10404E-02    16   0.113E+00    0.182E-02
DAV:   2    -0.138806046532E+02   -0.58256E-04   -0.55957E-04    32   0.243E-01
  959 T=   976. E= -.13628319E+02 F= -.13880605E+02 E0= -.13880605E+02  EK= 0.25229E+00 SP= 0.00E+00 SK= 0.00E+00
       N       E                     dE             d eps       ncg     rms          rms(c)
DAV:   1    -0.139205029658E+02   -0.39957E-01   -0.10861E-02    16   0.121E+00    0.207E-02
DAV:   2    -0.139205435002E+02   -0.40534E-04   -0.33741E-04    32   0.207E-01
  960 T=  1128. E= -.13628985E+02 F= -.13920544E+02 E0= -.13920544E+02  EK= 0.29156E+00 SP= 0.00E+00 SK= 0.00E+00
       N       E                     dE             d eps       ncg     rms          rms(c)
DAV:   1    -0.139948040784E+02   -0.74301E-01   -0.22801E-02    16   0.144E+00    0.166E-02
DAV:   2    -0.139948508972E+02   -0.46819E-04   -0.41017E-04    16   0.232E-01
  961 T=  1410. E= -.13630217E+02 F= -.13994851E+02 E0= -.13994851E+02  EK= 0.36463E+00 SP= 0.00E+00 SK= 0.00E+00
       N       E                     dE             d eps       ncg     rms          rms(c)
DAV:   1    -0.140835419872E+02   -0.88738E-01   -0.42373E-02    16   0.173E+00    0.284E-02
DAV:   2    -0.140836277485E+02   -0.85761E-04   -0.72801E-04    32   0.295E-01
  962 T=  1748. E= -.13631821E+02 F= -.14083628E+02 E0= -.14083628E+02  EK= 0.45181E+00 SP= 0.00E+00 SK= 0.00E+00
       N       E                     dE             d eps       ncg     rms          rms(c)
DAV:   1    -0.141598267057E+02   -0.76285E-01   -0.62664E-02    16   0.204E+00    0.485E-02
DAV:   2    -0.141599523216E+02   -0.12562E-03   -0.10635E-03    16   0.363E-01    0.432E-02
DAV:   3    -0.141599642353E+02   -0.11914E-04   -0.35981E-05    24   0.532E-02
  963 T=  2036. E= -.13633608E+02 F= -.14159964E+02 E0= -.14159964E+02  EK= 0.52636E+00 SP= 0.00E+00 SK= 0.00E+00
       N       E                     dE             d eps       ncg     rms          rms(c)
DAV:   1    -0.141959350923E+02   -0.35983E-01   -0.71796E-02    16   0.225E+00    0.841E-02
DAV:   2    -0.141961340350E+02   -0.19894E-03   -0.29322E-03    24   0.545E-01    0.282E-02
DAV:   3    -0.141961295011E+02    0.45339E-05   -0.59815E-05    32   0.556E-02
  964 T=  2171. E= -.13634925E+02 F= -.14196130E+02 E0= -.14196130E+02  EK= 0.56120E+00 SP= 0.00E+00 SK= 0.00E+00
       N       E                     dE             d eps       ncg     rms          rms(c)
DAV:   1    -0.141741622523E+02    0.21972E-01   -0.75391E-02    16   0.241E+00    0.446E-02
DAV:   2    -0.141743761383E+02   -0.21389E-03   -0.22336E-03    32   0.520E-01    0.430E-02
DAV:   3    -0.141743725178E+02    0.36204E-05   -0.15431E-05    16   0.331E-02
  965 T=  2088. E= -.13634663E+02 F= -.14174373E+02 E0= -.14174373E+02  EK= 0.53971E+00 SP= 0.00E+00 SK= 0.00E+00
       N       E                     dE             d eps       ncg     rms          rms(c)
DAV:   1    -0.141013279475E+02    0.73048E-01   -0.58259E-02    16   0.232E+00    0.632E-02
DAV:   2    -0.141014602985E+02   -0.13235E-03   -0.22917E-03    32   0.500E-01    0.262E-02
DAV:   3    -0.141014546626E+02    0.56359E-05   -0.18650E-05    32   0.410E-02
  966 T=  1815. E= -.13632194E+02 F= -.14101455E+02 E0= -.14101455E+02  EK= 0.46926E+00 SP= 0.00E+00 SK= 0.00E+00
       N       E                     dE             d eps       ncg     rms          rms(c)
DAV:   1    -0.140188044706E+02    0.82656E-01   -0.42784E-02    24   0.231E+00    0.718E-02
DAV:   2    -0.140189625369E+02   -0.15807E-03   -0.17699E-03    16   0.465E-01    0.373E-02
DAV:   3    -0.140189876125E+02   -0.25076E-04   -0.20369E-05    32   0.477E-02
  967 T=  1511. E= -.13628288E+02 F= -.14018988E+02 E0= -.14018988E+02  EK= 0.39070E+00 SP= 0.00E+00 SK= 0.00E+00
       N       E                     dE             d eps       ncg     rms          rms(c)
DAV:   1    -0.139872834698E+02    0.31679E-01   -0.29007E-02    24   0.183E+00    0.629E-02
DAV:   2    -0.139873672999E+02   -0.83830E-04   -0.10454E-03    16   0.361E-01    0.299E-02
DAV:   3    -0.139873936092E+02   -0.26309E-04   -0.18198E-05    32   0.448E-02
  968 T=  1396. E= -.13626393E+02 F= -.13987394E+02 E0= -.13987394E+02  EK= 0.36100E+00 SP= 0.00E+00 SK= 0.00E+00
       N       E                     dE             d eps       ncg     rms          rms(c)
DAV:   1    -0.140350168846E+02   -0.47650E-01   -0.29980E-02    16   0.121E+00    0.394E-02
DAV:   2    -0.140350547814E+02   -0.37897E-04   -0.41644E-04    32   0.198E-01
  969 T=  1571. E= -.13628920E+02 F= -.14035055E+02 E0= -.14035055E+02  EK= 0.40613E+00 SP= 0.00E+00 SK= 0.00E+00
       N       E                     dE             d eps       ncg     rms          rms(c)
DAV:   1    -0.141255182507E+02   -0.90501E-01   -0.52681E-02    24   0.124E+00    0.451E-02
DAV:   2    -0.141255546537E+02   -0.36403E-04   -0.35210E-04    16   0.201E-01
  970 T=  1904. E= -.13633260E+02 F= -.14125555E+02 E0= -.14125555E+02  EK= 0.49230E+00 SP= 0.00E+00 SK= 0.00E+00
       N       E                     dE             d eps       ncg     rms          rms(c)
DAV:   1    -0.141925266013E+02   -0.67008E-01   -0.81276E-02    24   0.164E+00    0.429E-02
DAV:   2    -0.141925963085E+02   -0.69707E-04   -0.65877E-04    24   0.310E-01
  971 T=  2154. E= -.13635627E+02 F= -.14192596E+02 E0= -.14192596E+02  EK= 0.55697E+00 SP= 0.00E+00 SK= 0.00E+00
       N       E                     dE             d eps       ncg     rms          rms(c)
DAV:   1    -0.141965322676E+02   -0.40057E-02   -0.93900E-02    16   0.188E+00    0.606E-02
DAV:   2    -0.141966166693E+02   -0.84402E-04   -0.12309E-03    32   0.405E-01    0.275E-02
DAV:   3    -0.141966274311E+02   -0.10762E-04   -0.66443E-06    16   0.275E-02
  972 T=  2172. E= -.13635157E+02 F= -.14196627E+02 E0= -.14196627E+02  EK= 0.56147E+00 SP= 0.00E+00 SK= 0.00E+00
       N       E                     dE             d eps       ncg     rms          rms(c)
DAV:   1    -0.141408456981E+02    0.55771E-01   -0.87972E-02    32   0.191E+00    0.402E-02
DAV:   2    -0.141409171421E+02   -0.71444E-04   -0.10295E-03    16   0.351E-01    0.941E-03
DAV:   3    -0.141409271742E+02   -0.10032E-04   -0.80260E-06    32   0.288E-02
  973 T=  1964. E= -.13633132E+02 F= -.14140927E+02 E0= -.14140927E+02  EK= 0.50780E+00 SP= 0.00E+00 SK= 0.00E+00
       N       E                     dE             d eps       ncg     rms          rms(c)
DAV:   1    -0.140534336086E+02    0.87484E-01   -0.67441E-02    16   0.161E+00    0.341E-02
DAV:   2    -0.140535869613E+02   -0.15335E-03   -0.16566E-03    32   0.422E-01    0.224E-02
DAV:   3    -0.140535864243E+02    0.53706E-06   -0.10607E-05    16   0.241E-02
  974 T=  1635. E= -.13630927E+02 F= -.14053586E+02 E0= -.14053586E+02  EK= 0.42266E+00 SP= 0.00E+00 SK= 0.00E+00
       N       E                     dE             d eps       ncg     rms          rms(c)
DAV:   1    -0.139667331731E+02    0.86854E-01   -0.49791E-02    32   0.149E+00    0.322E-02
DAV:   2    -0.139668130947E+02   -0.79922E-04   -0.90721E-04    24   0.316E-01
  975 T=  1306. E= -.13629248E+02 F= -.13966813E+02 E0= -.13966813E+02  EK= 0.33757E+00 SP= 0.00E+00 SK= 0.00E+00
       N       E                     dE             d eps       ncg     rms          rms(c)
DAV:   1    -0.139055782834E+02    0.61155E-01   -0.25775E-02    24   0.117E+00    0.416E-02
DAV:   2    -0.139056707034E+02   -0.92420E-04   -0.81486E-04    32   0.286E-01
  976 T=  1073. E= -.13628242E+02 F= -.13905671E+02 E0= -.13905671E+02  EK= 0.27743E+00 SP= 0.00E+00 SK= 0.00E+00
       N       E                     dE             d eps       ncg     rms          rms(c)
DAV:   1    -0.138843799199E+02    0.21198E-01   -0.11859E-02    32   0.971E-01    0.179E-02
DAV:   2    -0.138844377371E+02   -0.57817E-04   -0.38712E-04    32   0.221E-01
  977 T=   992. E= -.13628026E+02 F= -.13884438E+02 E0= -.13884438E+02  EK= 0.25641E+00 SP= 0.00E+00 SK= 0.00E+00
       N       E                     dE             d eps       ncg     rms          rms(c)
DAV:   1    -0.139061652062E+02   -0.21785E-01   -0.79243E-03    32   0.972E-01    0.137E-02
DAV:   2    -0.139061947324E+02   -0.29526E-04   -0.22040E-04    16   0.164E-01
  978 T=  1074. E= -.13628510E+02 F= -.13906195E+02 E0= -.13906195E+02  EK= 0.27768E+00 SP= 0.00E+00 SK= 0.00E+00
       N       E                     dE             d eps       ncg     rms          rms(c)
DAV:   1    -0.139635701722E+02   -0.57405E-01   -0.16916E-02    32   0.117E+00    0.127E-02
DAV:   2    -0.139636083562E+02   -0.38184E-04   -0.19641E-04    16   0.153E-01
  979 T=  1292. E= -.13629511E+02 F= -.13963608E+02 E0= -.13963608E+02  EK= 0.33410E+00 SP= 0.00E+00 SK= 0.00E+00
       N       E                     dE             d eps       ncg     rms          rms(c)
DAV:   1    -0.140402276410E+02   -0.76657E-01   -0.34583E-02    32   0.145E+00    0.159E-02
DAV:   2    -0.140402976384E+02   -0.69997E-04   -0.40146E-04    16   0.212E-01
  980 T=  1583. E= -.13630949E+02 F= -.14040298E+02 E0= -.14040298E+02  EK= 0.40935E+00 SP= 0.00E+00 SK= 0.00E+00
       N       E                     dE             d eps       ncg     rms          rms(c)
DAV:   1    -0.141128851738E+02   -0.72658E-01   -0.57045E-02    32   0.174E+00    0.269E-02
DAV:   2    -0.141129705682E+02   -0.85394E-04   -0.63171E-04    32   0.249E-01
  981 T=  1858. E= -.13632556E+02 F= -.14112971E+02 E0= -.14112971E+02  EK= 0.48041E+00 SP= 0.00E+00 SK= 0.00E+00
       N       E                     dE             d eps       ncg     rms          rms(c)
DAV:   1    -0.141561481255E+02   -0.43263E-01   -0.72316E-02    16   0.193E+00    0.289E-02
DAV:   2    -0.141562720240E+02   -0.12390E-03   -0.11948E-03    32   0.353E-01    0.296E-02
DAV:   3    -0.141562744901E+02   -0.24661E-05   -0.57817E-06    32   0.196E-02
  982 T=  2021. E= -.13633837E+02 F= -.14156274E+02 E0= -.14156274E+02  EK= 0.52244E+00 SP= 0.00E+00 SK= 0.00E+00
       N       E                     dE             d eps       ncg     rms          rms(c)
DAV:   1    -0.141512076818E+02    0.50643E-02   -0.76778E-02    24   0.198E+00    0.373E-02
DAV:   2    -0.141513996832E+02   -0.19200E-03   -0.17286E-03    16   0.430E-01    0.178E-02
DAV:   3    -0.141514151026E+02   -0.15419E-04   -0.14848E-05    32   0.351E-02
  983 T=  2002. E= -.13633910E+02 F= -.14151415E+02 E0= -.14151415E+02  EK= 0.51750E+00 SP= 0.00E+00 SK= 0.00E+00
       N       E                     dE             d eps       ncg     rms          rms(c)
DAV:   1    -0.140988267147E+02    0.52573E-01   -0.67170E-02    16   0.190E+00    0.474E-02
DAV:   2    -0.140990287616E+02   -0.20205E-03   -0.22287E-03    32   0.487E-01    0.353E-02
DAV:   3    -0.140990335669E+02   -0.48054E-05   -0.16697E-05    16   0.322E-02
  984 T=  1806. E= -.13632097E+02 F= -.14099034E+02 E0= -.14099034E+02  EK= 0.46694E+00 SP= 0.00E+00 SK= 0.00E+00
       N       E                     dE             d eps       ncg     rms          rms(c)
DAV:   1    -0.140288038500E+02    0.70225E-01   -0.53990E-02    24   0.184E+00    0.742E-02
DAV:   2    -0.140288798829E+02   -0.76033E-04   -0.17475E-03    16   0.416E-01    0.263E-02
DAV:   3    -0.140288980665E+02   -0.18184E-04   -0.18097E-05    32   0.440E-02
  985 T=  1548. E= -.13628760E+02 F= -.14028898E+02 E0= -.14028898E+02  EK= 0.40014E+00 SP= 0.00E+00 SK= 0.00E+00
       N       E                     dE             d eps       ncg     rms          rms(c)
DAV:   1    -0.139921799728E+02    0.36700E-01   -0.31205E-02    16   0.159E+00    0.624E-02
DAV:   2    -0.139923272545E+02   -0.14728E-03   -0.15160E-03    32   0.353E-01    0.279E-02
DAV:   3    -0.139923660485E+02   -0.38794E-04   -0.11393E-05    16   0.359E-02
  986 T=  1416. E= -.13626190E+02 F= -.13992366E+02 E0= -.13992366E+02  EK= 0.36618E+00 SP= 0.00E+00 SK= 0.00E+00
       N       E                     dE             d eps       ncg     rms          rms(c)
DAV:   1    -0.140263033644E+02   -0.33976E-01   -0.23032E-02    24   0.141E+00    0.415E-02
DAV:   2    -0.140263833155E+02   -0.79951E-04   -0.69955E-04    16   0.261E-01
  987 T=  1544. E= -.13627305E+02 F= -.14026383E+02 E0= -.14026383E+02  EK= 0.39908E+00 SP= 0.00E+00 SK= 0.00E+00
       N       E                     dE             d eps       ncg     rms          rms(c)
DAV:   1    -0.141139570482E+02   -0.87654E-01   -0.33591E-02    16   0.157E+00    0.511E-02
DAV:   2    -0.141140839525E+02   -0.12690E-03   -0.12071E-03    24   0.372E-01    0.417E-02
DAV:   3    -0.141141001816E+02   -0.16229E-04   -0.12251E-05    32   0.333E-02
  988 T=  1868. E= -.13631263E+02 F= -.14114100E+02 E0= -.14114100E+02  EK= 0.48284E+00 SP= 0.00E+00 SK= 0.00E+00
       N       E                     dE             d eps       ncg     rms          rms(c)
DAV:   1    -0.141960243831E+02   -0.81940E-01   -0.58879E-02    32   0.193E+00    0.500E-02
DAV:   2    -0.141961192363E+02   -0.94853E-04   -0.10194E-03    32   0.365E-01    0.215E-02
DAV:   3    -0.141961335148E+02   -0.14279E-04   -0.78331E-06    16   0.246E-02
  989 T=  2172. E= -.13634500E+02 F= -.14196134E+02 E0= -.14196134E+02  EK= 0.56163E+00 SP= 0.00E+00 SK= 0.00E+00
       N       E                     dE             d eps       ncg     rms          rms(c)
DAV:   1    -0.142221565739E+02   -0.26037E-01   -0.78511E-02    32   0.223E+00    0.413E-02
DAV:   2    -0.142222677725E+02   -0.11120E-03   -0.12468E-03    16   0.410E-01    0.231E-02
DAV:   3    -0.142222756875E+02   -0.79149E-05   -0.87215E-06    32   0.316E-02
  990 T=  2272. E= -.13634917E+02 F= -.14222276E+02 E0= -.14222276E+02  EK= 0.58736E+00 SP= 0.00E+00 SK= 0.00E+00
       N       E                     dE             d eps       ncg     rms          rms(c)
DAV:   1    -0.141823352377E+02    0.39933E-01   -0.80072E-02    16   0.235E+00    0.532E-02
DAV:   2    -0.141825202903E+02   -0.18505E-03   -0.23171E-03    24   0.548E-01    0.244E-02
DAV:   3    -0.141825223761E+02   -0.20858E-05   -0.10474E-05    32   0.281E-02
  991 T=  2124. E= -.13633297E+02 F= -.14182522E+02 E0= -.14182522E+02  EK= 0.54923E+00 SP= 0.00E+00 SK= 0.00E+00
       N       E                     dE             d eps       ncg     rms          rms(c)
DAV:   1    -0.140986169544E+02    0.83903E-01   -0.62080E-02    16   0.193E+00    0.377E-02
DAV:   2    -0.140987413594E+02   -0.12440E-03   -0.15367E-03    32   0.433E-01    0.204E-02
DAV:   3    -0.140987403238E+02    0.10356E-05   -0.73769E-06    16   0.212E-02
  992 T=  1809. E= -.13631072E+02 F= -.14098740E+02 E0= -.14098740E+02  EK= 0.46767E+00 SP= 0.00E+00 SK= 0.00E+00
       N       E                     dE             d eps       ncg     rms          rms(c)
DAV:   1    -0.140036647441E+02    0.95077E-01   -0.55677E-02    24   0.201E+00    0.285E-02
DAV:   2    -0.140038556185E+02   -0.19087E-03   -0.18844E-03    24   0.440E-01    0.259E-02
DAV:   3    -0.140038581843E+02   -0.25657E-05   -0.83462E-06    32   0.227E-02
  993 T=  1450. E= -.13629123E+02 F= -.14003858E+02 E0= -.14003858E+02  EK= 0.37474E+00 SP= 0.00E+00 SK= 0.00E+00
       N       E                     dE             d eps       ncg     rms          rms(c)
DAV:   1    -0.139267189217E+02    0.77137E-01   -0.26954E-02    16   0.150E+00    0.318E-02
DAV:   2    -0.139269154004E+02   -0.19648E-03   -0.18791E-03    32   0.432E-01    0.364E-02
DAV:   3    -0.139269163479E+02   -0.94744E-06   -0.42513E-06    24   0.166E-02
  994 T=  1157. E= -.13627825E+02 F= -.13926916E+02 E0= -.13926916E+02  EK= 0.29909E+00 SP= 0.00E+00 SK= 0.00E+00
       N       E                     dE             d eps       ncg     rms          rms(c)
DAV:   1    -0.138867914927E+02    0.40124E-01   -0.10247E-02    16   0.113E+00    0.243E-02
DAV:   2    -0.138868503123E+02   -0.58820E-04   -0.59892E-04    32   0.259E-01
  995 T=  1004. E= -.13627311E+02 F= -.13886850E+02 E0= -.13886850E+02  EK= 0.25954E+00 SP= 0.00E+00 SK= 0.00E+00
       N       E                     dE             d eps       ncg     rms          rms(c)
DAV:   1    -0.138913168683E+02   -0.45254E-02   -0.73194E-03    16   0.944E-01    0.220E-02
DAV:   2    -0.138913519711E+02   -0.35103E-04   -0.30793E-04    32   0.180E-01
  996 T=  1021. E= -.13627520E+02 F= -.13891352E+02 E0= -.13891352E+02  EK= 0.26383E+00 SP= 0.00E+00 SK= 0.00E+00
       N       E                     dE             d eps       ncg     rms          rms(c)
DAV:   1    -0.139372744123E+02   -0.45958E-01   -0.17072E-02    16   0.101E+00    0.203E-02
DAV:   2    -0.139373161728E+02   -0.41761E-04   -0.33112E-04    32   0.191E-01
  997 T=  1195. E= -.13628320E+02 F= -.13937316E+02 E0= -.13937316E+02  EK= 0.30900E+00 SP= 0.00E+00 SK= 0.00E+00
       N       E                     dE             d eps       ncg     rms          rms(c)
DAV:   1    -0.140117665977E+02   -0.74492E-01   -0.37969E-02    16   0.122E+00    0.230E-02
DAV:   2    -0.140118238789E+02   -0.57281E-04   -0.42236E-04    32   0.211E-01
  998 T=  1478. E= -.13629642E+02 F= -.14011824E+02 E0= -.14011824E+02  EK= 0.38218E+00 SP= 0.00E+00 SK= 0.00E+00
       N       E                     dE             d eps       ncg     rms          rms(c)
DAV:   1    -0.140931461724E+02   -0.81380E-01   -0.63225E-02    16   0.152E+00    0.278E-02
DAV:   2    -0.140932452638E+02   -0.99091E-04   -0.97202E-04    16   0.309E-01
  999 T=  1787. E= -.13631340E+02 F= -.14093245E+02 E0= -.14093245E+02  EK= 0.46191E+00 SP= 0.00E+00 SK= 0.00E+00
       N       E                     dE             d eps       ncg     rms          rms(c)
DAV:   1    -0.141537610237E+02   -0.60615E-01   -0.88352E-02    16   0.181E+00    0.395E-02
DAV:   2    -0.141539165508E+02   -0.15553E-03   -0.15190E-03    24   0.362E-01    0.426E-02
DAV:   3    -0.141539128447E+02    0.37060E-05   -0.46728E-06    16   0.201E-02
 1000 T=  2015. E= -.13632994E+02 F= -.14153913E+02 E0= -.14153913E+02  EK= 0.52092E+00 SP= 0.00E+00 SK= 0.00E+00
