FeBiO3                                    
   1.00000000000000     
     4.4362798819116858    1.5524979352336064    2.7205063596444350
    -0.0341933132546832    4.6999640369110791    2.7205059734350789
    -0.0341939503958560   -0.0485663821309455    5.4303274268415738
   O    Fe   Bi
   6   2    2
Direct
  0.4169999994337562   0.0830000005662438   0.2500000000000000
  0.2500000000000000   0.4169999994337562   0.0830000005662438
  0.0830000005662438   0.2500000000000000   0.4169999994337562
-0.4169999994337562  -0.0830000005662438  -0.2500000000000000
-0.2500000000000000  -0.4169999994337562  -0.0830000005662438
-0.0830000005662438  -0.2500000000000000  -0.4169999994337562
  0.2500000000000000   0.2500000000000000   0.2500000000000000
-0.2500000000000000  -0.2500000000000000  -0.2500000000000000
  0.5000000000000000   0.5000000000000000   0.5000000000000000
  0.0000000000000000   0.0000000000000000  -0.0000000000000000
