 PAW_PBE Cu 05Jan2001
 11.0000000000000000
 parameters from PSCTR are:
   VRHFIN =Cu: d10 p1
   LEXCH  = PE
   EATOM  =  1390.9800 eV,  102.2341 Ry

   TITEL  = PAW_PBE Cu 05Jan2001
   LULTRA =        F    use ultrasoft PP ?
   IUNSCR =        1    unscreen: 0-lin 1-nonlin 2-no
   RPACOR =    2.000    partial core radius
   POMASS =   63.546; ZVAL   =   11.000    mass and valenz
   RCORE  =    2.300    outmost cutoff radius
   RWIGS  =    2.480; RWIGS  =    1.312    wigner-seitz radius (au A)
   ENMAX  =  273.214; ENMIN  =  204.910 eV
   RCLOC  =    1.712    cutoff for local pot
   LCOR   =        T    correct aug charges
   LPAW   =        T    paw PP
   EAUG   =  516.456
   DEXC   =    -.008
   RMAX   =    2.789    core radius for proj-oper
   RAUG   =    1.300    factor for augmentation sphere
   RDEP   =    2.302    radius for radial grids
   QCUT   =   -4.481; QGAM   =    8.962    optimization parameters
 
   Description
     l     E      TYP  RCUT    TYP  RCUT
     2   .000     23  2.300
     2   .000     23  2.300
     0   .000     23  2.300
     0   .000     23  2.300
     1  -.200     23  2.300
     1   .000     23  2.300
     3   .000      7   .000
   Error from kinetic energy argument (eV)
   NDATA  =      100
   STEP   =   20.000   1.050
  109.      107.      107.      105.      104.      103.      101.      100.
  98.3      96.3      95.3      93.2      91.0      88.7      86.3      83.9
  81.3      78.7      76.1      72.1      69.4      66.6      62.5      59.8
  57.0      52.9      48.9      46.3      42.4      38.7      35.1      31.7
  28.5      25.5      22.6      20.0      16.7      14.5      11.9      10.2
  8.20      6.49      5.05      3.87      2.91      2.14      1.55      .993
  .677      .403      .230      .144      .805E-01  .493E-01  .351E-01  .324E-01
  .322E-01  .315E-01  .287E-01  .242E-01  .187E-01  .135E-01  .919E-02  .577E-02
  .414E-02  .333E-02  .317E-02  .315E-02  .295E-02  .256E-02  .195E-02  .137E-02
  .935E-03  .701E-03  .618E-03  .611E-03  .587E-03  .509E-03  .381E-03  .272E-03
  .197E-03  .172E-03  .169E-03  .159E-03  .131E-03  .952E-04  .697E-04  .595E-04
  .584E-04  .539E-04  .420E-04  .308E-04  .246E-04  .238E-04  .221E-04  .174E-04
  .126E-04  .110E-04  .107E-04  .919E-05
END of PSCTR-controll parameters
