PROCAR lm decomposed
# of k-points:   13         # of bands:  20         # of ions:   4

 k-point    1 :    0.00000000 0.00000000 0.00000000     weight = 0.01562500

band   1 # energy  -14.46950999 # occ.  1.00000000
 
ion      s     py     pz     px    dxy    dyz    dz2    dxz    dx2    tot
  1  0.066  0.000  0.000  0.000  0.000  0.000  0.000  0.000  0.000  0.066
  2  0.064  0.000  0.000  0.000  0.000  0.000  0.000  0.000  0.000  0.064
  3  0.384  0.000  0.000  0.000  0.000  0.000  0.000  0.000  0.000  0.384
  4  0.384  0.000  0.000  0.000  0.000  0.000  0.000  0.000  0.000  0.384
tot  0.898  0.000  0.000  0.000  0.000  0.000  0.000  0.000  0.000  0.898
 
band   2 # energy  -12.93168016 # occ.  1.00000000
 
ion      s     py     pz     px    dxy    dyz    dz2    dxz    dx2    tot
  1  0.000  0.011  0.011  0.011  0.000  0.000  0.000  0.000  0.000  0.033
  2  0.000  0.011  0.011  0.011  0.000  0.000  0.000  0.000  0.000  0.033
  3  0.435  0.000  0.000  0.000  0.000  0.000  0.000  0.000  0.000  0.435
  4  0.435  0.000  0.000  0.000  0.000  0.000  0.000  0.000  0.000  0.435
tot  0.871  0.022  0.022  0.022  0.000  0.000  0.000  0.000  0.000  0.937
 
band   3 # energy   -3.57954707 # occ.  1.00000000
 
ion      s     py     pz     px    dxy    dyz    dz2    dxz    dx2    tot
  1  0.079  0.000  0.000  0.000  0.072  0.072  0.000  0.072  0.000  0.294
  2  0.078  0.000  0.000  0.000  0.038  0.038  0.000  0.038  0.000  0.191
  3  0.000  0.057  0.057  0.057  0.000  0.000  0.000  0.000  0.000  0.171
  4  0.000  0.057  0.057  0.057  0.000  0.000  0.000  0.000  0.000  0.171
tot  0.156  0.114  0.114  0.114  0.110  0.110  0.000  0.110  0.000  0.827
 
band   4 # energy   -2.75679638 # occ.  1.00000000
 
ion      s     py     pz     px    dxy    dyz    dz2    dxz    dx2    tot
  1  0.000  0.000  0.000  0.000  0.002  0.008  0.098  0.018  0.685  0.810
  2  0.000  0.000  0.000  0.000  0.001  0.003  0.001  0.007  0.007  0.020
  3  0.000  0.045  0.006  0.020  0.000  0.000  0.000  0.000  0.000  0.071
  4  0.000  0.045  0.006  0.020  0.000  0.000  0.000  0.000  0.000  0.071
tot  0.000  0.089  0.012  0.041  0.003  0.011  0.099  0.025  0.692  0.972
 
band   5 # energy   -2.75679638 # occ.  1.00000000
 
ion      s     py     pz     px    dxy    dyz    dz2    dxz    dx2    tot
  1  0.000  0.000  0.000  0.000  0.016  0.011  0.685  0.001  0.098  0.810
  2  0.000  0.000  0.000  0.000  0.007  0.004  0.007  0.000  0.001  0.020
  3  0.000  0.003  0.041  0.027  0.000  0.000  0.000  0.000  0.000  0.071
  4  0.000  0.003  0.041  0.027  0.000  0.000  0.000  0.000  0.000  0.071
tot  0.000  0.005  0.083  0.054  0.023  0.015  0.692  0.002  0.099  0.972
 
band   6 # energy   -0.93119530 # occ.  1.00000000
 
ion      s     py     pz     px    dxy    dyz    dz2    dxz    dx2    tot
  1  0.000  0.000  0.000  0.000  0.061  0.276  0.003  0.554  0.030  0.924
  2  0.000  0.000  0.000  0.000  0.003  0.012  0.000  0.024  0.001  0.039
  3  0.000  0.000  0.000  0.000  0.000  0.000  0.000  0.000  0.000  0.001
  4  0.000  0.000  0.000  0.000  0.000  0.000  0.000  0.000  0.000  0.001
tot  0.000  0.001  0.000  0.000  0.063  0.287  0.004  0.578  0.031  0.965
 
band   7 # energy   -0.93119530 # occ.  1.00000000
 
ion      s     py     pz     px    dxy    dyz    dz2    dxz    dx2    tot
  1  0.000  0.000  0.000  0.000  0.533  0.318  0.030  0.040  0.003  0.924
  2  0.000  0.000  0.000  0.000  0.023  0.014  0.001  0.002  0.000  0.039
  3  0.000  0.000  0.000  0.000  0.000  0.000  0.000  0.000  0.000  0.001
  4  0.000  0.000  0.000  0.000  0.000  0.000  0.000  0.000  0.000  0.001
tot  0.000  0.000  0.001  0.000  0.556  0.332  0.031  0.041  0.004  0.965
 
band   8 # energy   -0.65834245 # occ.  1.00000000
 
ion      s     py     pz     px    dxy    dyz    dz2    dxz    dx2    tot
  1  0.006  0.000  0.000  0.000  0.199  0.199  0.000  0.199  0.000  0.601
  2  0.006  0.000  0.000  0.000  0.107  0.107  0.000  0.107  0.000  0.326
  3  0.000  0.004  0.004  0.004  0.000  0.000  0.000  0.000  0.000  0.013
  4  0.000  0.004  0.004  0.004  0.000  0.000  0.000  0.000  0.000  0.013
tot  0.011  0.009  0.009  0.009  0.305  0.305  0.000  0.305  0.000  0.954
 
band   9 # energy    0.22731841 # occ.  1.00000000
 
ion      s     py     pz     px    dxy    dyz    dz2    dxz    dx2    tot
  1  0.000  0.000  0.000  0.000  0.001  0.008  0.003  0.013  0.052  0.077
  2  0.000  0.000  0.000  0.000  0.034  0.322  0.001  0.500  0.009  0.865
  3  0.000  0.007  0.001  0.005  0.000  0.000  0.000  0.000  0.000  0.013
  4  0.000  0.007  0.001  0.005  0.000  0.000  0.000  0.000  0.000  0.013
tot  0.000  0.015  0.001  0.010  0.035  0.330  0.004  0.512  0.061  0.967
 
band  10 # energy    0.22731842 # occ.  1.00000000
 
ion      s     py     pz     px    dxy    dyz    dz2    dxz    dx2    tot
  1  0.000  0.000  0.000  0.000  0.014  0.006  0.052  0.002  0.003  0.077
  2  0.000  0.000  0.000  0.000  0.536  0.249  0.009  0.071  0.001  0.865
  3  0.000  0.001  0.008  0.004  0.000  0.000  0.000  0.000  0.000  0.013
  4  0.000  0.001  0.008  0.004  0.000  0.000  0.000  0.000  0.000  0.013
tot  0.000  0.002  0.016  0.007  0.550  0.255  0.061  0.072  0.004  0.967
 
band  11 # energy    1.46284256 # occ.  1.00000000
 
ion      s     py     pz     px    dxy    dyz    dz2    dxz    dx2    tot
  1  0.037  0.000  0.000  0.000  0.056  0.056  0.000  0.056  0.000  0.206
  2  0.036  0.000  0.000  0.000  0.181  0.181  0.000  0.181  0.000  0.579
  3  0.000  0.031  0.031  0.031  0.000  0.000  0.000  0.000  0.000  0.094
  4  0.000  0.031  0.031  0.031  0.000  0.000  0.000  0.000  0.000  0.094
tot  0.073  0.063  0.063  0.063  0.238  0.238  0.000  0.238  0.000  0.974
 
band  12 # energy    2.72396330 # occ.  1.00000000
 
ion      s     py     pz     px    dxy    dyz    dz2    dxz    dx2    tot
  1  0.000  0.000  0.000  0.000  0.020  0.010  0.118  0.002  0.008  0.158
  2  0.000  0.000  0.000  0.000  0.041  0.019  0.206  0.005  0.014  0.285
  3  0.000  0.020  0.164  0.078  0.000  0.000  0.000  0.000  0.000  0.262
  4  0.000  0.020  0.164  0.078  0.000  0.000  0.000  0.000  0.000  0.262
tot  0.000  0.040  0.328  0.157  0.061  0.029  0.324  0.007  0.021  0.968
 
band  13 # energy    2.72396331 # occ.  1.00000000
 
ion      s     py     pz     px    dxy    dyz    dz2    dxz    dx2    tot
  1  0.000  0.000  0.000  0.000  0.001  0.012  0.008  0.019  0.118  0.158
  2  0.000  0.000  0.000  0.000  0.003  0.024  0.014  0.039  0.206  0.285
  3  0.000  0.155  0.011  0.097  0.000  0.000  0.000  0.000  0.000  0.262
  4  0.000  0.155  0.011  0.097  0.000  0.000  0.000  0.000  0.000  0.262
tot  0.000  0.310  0.022  0.193  0.004  0.036  0.021  0.058  0.324  0.968
 
band  14 # energy    2.73306234 # occ.  1.00000000
 
ion      s     py     pz     px    dxy    dyz    dz2    dxz    dx2    tot
  1  0.000  0.013  0.002  0.005  0.000  0.000  0.000  0.000  0.000  0.020
  2  0.000  0.013  0.002  0.005  0.000  0.000  0.000  0.000  0.000  0.019
  3  0.000  0.287  0.043  0.112  0.000  0.000  0.000  0.000  0.000  0.443
  4  0.000  0.287  0.043  0.112  0.000  0.000  0.000  0.000  0.000  0.443
tot  0.000  0.600  0.091  0.234  0.000  0.000  0.000  0.000  0.000  0.925
 
band  15 # energy    2.73306234 # occ.  1.00000000
 
ion      s     py     pz     px    dxy    dyz    dz2    dxz    dx2    tot
  1  0.000  0.000  0.012  0.008  0.000  0.000  0.000  0.000  0.000  0.020
  2  0.000  0.000  0.011  0.008  0.000  0.000  0.000  0.000  0.000  0.019
  3  0.000  0.008  0.252  0.183  0.000  0.000  0.000  0.000  0.000  0.443
  4  0.000  0.008  0.252  0.183  0.000  0.000  0.000  0.000  0.000  0.443
tot  0.000  0.017  0.526  0.383  0.000  0.000  0.000  0.000  0.000  0.925
 
band  16 # energy    2.73760939 # occ.  1.00000000
 
ion      s     py     pz     px    dxy    dyz    dz2    dxz    dx2    tot
  1  0.000  0.007  0.007  0.007  0.000  0.000  0.000  0.000  0.000  0.020
  2  0.000  0.007  0.007  0.007  0.000  0.000  0.000  0.000  0.000  0.020
  3  0.000  0.148  0.148  0.148  0.000  0.000  0.000  0.000  0.000  0.443
  4  0.000  0.148  0.148  0.148  0.000  0.000  0.000  0.000  0.000  0.443
tot  0.000  0.308  0.308  0.308  0.000  0.000  0.000  0.000  0.000  0.925
 
band  17 # energy    7.04766537 # occ.  0.00000000
 
ion      s     py     pz     px    dxy    dyz    dz2    dxz    dx2    tot
  1  0.208  0.000  0.000  0.000  0.000  0.000  0.000  0.000  0.000  0.208
  2  0.201  0.000  0.000  0.000  0.000  0.000  0.000  0.000  0.000  0.201
  3  0.145  0.000  0.000  0.000  0.000  0.000  0.000  0.000  0.000  0.145
  4  0.145  0.000  0.000  0.000  0.000  0.000  0.000  0.000  0.000  0.145
tot  0.698  0.000  0.000  0.000  0.000  0.000  0.000  0.000  0.000  0.698
 
band  18 # energy    7.62809546 # occ.  0.00000000
 
ion      s     py     pz     px    dxy    dyz    dz2    dxz    dx2    tot
  1  0.000  0.000  0.000  0.000  0.000  0.000  0.003  0.000  0.034  0.037
  2  0.000  0.000  0.000  0.000  0.000  0.000  0.053  0.000  0.699  0.753
  3  0.000  0.045  0.005  0.046  0.000  0.000  0.000  0.000  0.000  0.096
  4  0.000  0.045  0.005  0.046  0.000  0.000  0.000  0.000  0.000  0.096
tot  0.000  0.090  0.009  0.092  0.000  0.001  0.056  0.001  0.733  0.982
 
band  19 # energy    7.62809546 # occ.  0.00000000
 
ion      s     py     pz     px    dxy    dyz    dz2    dxz    dx2    tot
  1  0.000  0.000  0.000  0.000  0.001  0.000  0.034  0.000  0.003  0.037
  2  0.000  0.000  0.000  0.000  0.001  0.000  0.699  0.000  0.053  0.753
  3  0.000  0.018  0.059  0.018  0.000  0.000  0.000  0.000  0.000  0.096
  4  0.000  0.018  0.059  0.018  0.000  0.000  0.000  0.000  0.000  0.096
tot  0.000  0.037  0.118  0.036  0.001  0.000  0.733  0.000  0.056  0.982
 
band  20 # energy   10.88636440 # occ.  0.00000000
 
ion      s     py     pz     px    dxy    dyz    dz2    dxz    dx2    tot
  1  0.000  0.060  0.060  0.060  0.000  0.000  0.000  0.000  0.000  0.179
  2  0.000  0.057  0.057  0.057  0.000  0.000  0.000  0.000  0.000  0.172
  3  0.065  0.000  0.000  0.000  0.000  0.000  0.000  0.000  0.000  0.065
  4  0.065  0.000  0.000  0.000  0.000  0.000  0.000  0.000  0.000  0.065
tot  0.131  0.117  0.117  0.117  0.000  0.000  0.000  0.000  0.000  0.482
 

 k-point    2 :    0.25000000-0.00000000-0.00000000     weight = 0.09375000

band   1 # energy  -13.83773257 # occ.  1.00000000
 
ion      s     py     pz     px    dxy    dyz    dz2    dxz    dx2    tot
  1  0.041  0.001  0.001  0.009  0.000  0.000  0.001  0.000  0.003  0.057
  2  0.040  0.002  0.002  0.009  0.000  0.000  0.000  0.000  0.001  0.053
  3  0.401  0.000  0.000  0.001  0.000  0.000  0.000  0.000  0.000  0.402
  4  0.401  0.000  0.000  0.001  0.000  0.000  0.000  0.000  0.000  0.402
tot  0.884  0.003  0.003  0.020  0.000  0.000  0.001  0.000  0.004  0.915
 
band   2 # energy  -12.87639704 # occ.  1.00000000
 
ion      s     py     pz     px    dxy    dyz    dz2    dxz    dx2    tot
  1  0.001  0.010  0.010  0.001  0.000  0.000  0.006  0.000  0.019  0.047
  2  0.000  0.009  0.009  0.002  0.000  0.000  0.003  0.000  0.009  0.032
  3  0.435  0.000  0.000  0.000  0.000  0.000  0.000  0.000  0.000  0.435
  4  0.435  0.000  0.000  0.000  0.000  0.000  0.000  0.000  0.000  0.435
tot  0.871  0.019  0.019  0.004  0.000  0.000  0.009  0.000  0.028  0.950
 
band   3 # energy   -3.01274020 # occ.  1.00000000
 
ion      s     py     pz     px    dxy    dyz    dz2    dxz    dx2    tot
  1  0.013  0.003  0.003  0.000  0.011  0.099  0.107  0.011  0.320  0.565
  2  0.043  0.003  0.003  0.001  0.001  0.040  0.000  0.001  0.000  0.092
  3  0.001  0.051  0.051  0.024  0.000  0.000  0.000  0.000  0.000  0.126
  4  0.001  0.051  0.051  0.024  0.000  0.000  0.000  0.000  0.000  0.126
tot  0.059  0.107  0.107  0.049  0.011  0.139  0.107  0.011  0.320  0.910
 
band   4 # energy   -2.64216656 # occ.  1.00000000
 
ion      s     py     pz     px    dxy    dyz    dz2    dxz    dx2    tot
  1  0.000  0.000  0.000  0.000  0.000  0.000  0.614  0.000  0.205  0.820
  2  0.000  0.002  0.002  0.000  0.003  0.000  0.003  0.003  0.001  0.014
  3  0.000  0.035  0.035  0.000  0.000  0.000  0.000  0.000  0.000  0.071
  4  0.000  0.035  0.035  0.000  0.000  0.000  0.000  0.000  0.000  0.071
tot  0.000  0.073  0.073  0.000  0.003  0.000  0.617  0.003  0.206  0.975
 
band   5 # energy   -2.28930570 # occ.  1.00000000
 
ion      s     py     pz     px    dxy    dyz    dz2    dxz    dx2    tot
  1  0.033  0.000  0.000  0.024  0.067  0.055  0.061  0.067  0.182  0.489
  2  0.008  0.000  0.000  0.018  0.042  0.017  0.001  0.042  0.003  0.131
  3  0.003  0.012  0.012  0.108  0.000  0.000  0.000  0.000  0.000  0.135
  4  0.003  0.012  0.012  0.108  0.000  0.000  0.000  0.000  0.000  0.135
tot  0.046  0.024  0.024  0.258  0.109  0.071  0.062  0.109  0.185  0.890
 
band   6 # energy   -1.60229351 # occ.  1.00000000
 
ion      s     py     pz     px    dxy    dyz    dz2    dxz    dx2    tot
  1  0.017  0.000  0.000  0.005  0.183  0.302  0.005  0.183  0.015  0.710
  2  0.005  0.003  0.003  0.005  0.004  0.002  0.003  0.004  0.009  0.037
  3  0.004  0.016  0.016  0.049  0.000  0.000  0.000  0.000  0.000  0.085
  4  0.004  0.016  0.016  0.049  0.000  0.000  0.000  0.000  0.000  0.085
tot  0.030  0.034  0.034  0.108  0.186  0.304  0.008  0.186  0.024  0.916
 
band   7 # energy   -0.87147174 # occ.  1.00000000
 
ion      s     py     pz     px    dxy    dyz    dz2    dxz    dx2    tot
  1  0.000  0.002  0.002  0.000  0.431  0.000  0.000  0.431  0.000  0.867
  2  0.000  0.001  0.001  0.000  0.019  0.000  0.003  0.019  0.001  0.043
  3  0.000  0.013  0.013  0.000  0.000  0.000  0.000  0.000  0.000  0.027
  4  0.000  0.013  0.013  0.000  0.000  0.000  0.000  0.000  0.000  0.027
tot  0.000  0.029  0.029  0.000  0.450  0.000  0.004  0.450  0.001  0.964
 
band   8 # energy   -0.68592398 # occ.  1.00000000
 
ion      s     py     pz     px    dxy    dyz    dz2    dxz    dx2    tot
  1  0.011  0.003  0.003  0.002  0.030  0.188  0.006  0.030  0.018  0.291
  2  0.005  0.000  0.000  0.003  0.008  0.457  0.005  0.008  0.014  0.500
  3  0.001  0.023  0.023  0.020  0.000  0.000  0.000  0.000  0.000  0.067
  4  0.001  0.023  0.023  0.020  0.000  0.000  0.000  0.000  0.000  0.067
tot  0.018  0.049  0.049  0.046  0.038  0.645  0.011  0.038  0.032  0.925
 
band   9 # energy   -0.56591001 # occ.  1.00000000
 
ion      s     py     pz     px    dxy    dyz    dz2    dxz    dx2    tot
  1  0.008  0.002  0.002  0.007  0.048  0.198  0.019  0.048  0.057  0.389
  2  0.002  0.001  0.001  0.009  0.190  0.008  0.000  0.190  0.001  0.404
  3  0.004  0.017  0.017  0.034  0.000  0.000  0.000  0.000  0.000  0.072
  4  0.004  0.017  0.017  0.034  0.000  0.000  0.000  0.000  0.000  0.072
tot  0.017  0.038  0.038  0.083  0.239  0.206  0.020  0.239  0.059  0.937
 
band  10 # energy    0.43817281 # occ.  1.00000000
 
ion      s     py     pz     px    dxy    dyz    dz2    dxz    dx2    tot
  1  0.000  0.001  0.001  0.000  0.032  0.000  0.013  0.032  0.004  0.082
  2  0.000  0.001  0.001  0.000  0.429  0.000  0.000  0.429  0.000  0.861
  3  0.000  0.008  0.008  0.000  0.000  0.000  0.000  0.000  0.000  0.016
  4  0.000  0.008  0.008  0.000  0.000  0.000  0.000  0.000  0.000  0.016
tot  0.000  0.018  0.018  0.000  0.461  0.000  0.013  0.461  0.004  0.974
 
band  11 # energy    0.92933834 # occ.  1.00000000
 
ion      s     py     pz     px    dxy    dyz    dz2    dxz    dx2    tot
  1  0.052  0.000  0.000  0.005  0.080  0.056  0.006  0.080  0.017  0.294
  2  0.013  0.001  0.001  0.009  0.010  0.112  0.013  0.010  0.040  0.210
  3  0.012  0.022  0.022  0.154  0.000  0.000  0.000  0.000  0.000  0.211
  4  0.012  0.022  0.022  0.154  0.000  0.000  0.000  0.000  0.000  0.211
tot  0.090  0.046  0.046  0.322  0.089  0.168  0.019  0.089  0.056  0.926
 
band  12 # energy    1.33280490 # occ.  1.00000000
 
ion      s     py     pz     px    dxy    dyz    dz2    dxz    dx2    tot
  1  0.009  0.002  0.002  0.004  0.061  0.047  0.006  0.061  0.018  0.211
  2  0.060  0.000  0.000  0.004  0.061  0.276  0.000  0.061  0.000  0.463
  3  0.003  0.047  0.047  0.044  0.000  0.000  0.000  0.000  0.000  0.140
  4  0.003  0.047  0.047  0.044  0.000  0.000  0.000  0.000  0.000  0.140
tot  0.076  0.096  0.096  0.096  0.121  0.323  0.006  0.121  0.018  0.954
 
band  13 # energy    1.93086710 # occ.  1.00000000
 
ion      s     py     pz     px    dxy    dyz    dz2    dxz    dx2    tot
  1  0.000  0.013  0.013  0.000  0.023  0.000  0.047  0.023  0.016  0.134
  2  0.000  0.000  0.000  0.000  0.006  0.000  0.126  0.006  0.042  0.181
  3  0.000  0.157  0.157  0.000  0.000  0.000  0.000  0.000  0.000  0.315
  4  0.000  0.157  0.157  0.000  0.000  0.000  0.000  0.000  0.000  0.315
tot  0.000  0.328  0.328  0.000  0.029  0.000  0.173  0.029  0.058  0.945
 
band  14 # energy    2.03127463 # occ.  1.00000000
 
ion      s     py     pz     px    dxy    dyz    dz2    dxz    dx2    tot
  1  0.009  0.003  0.003  0.020  0.004  0.002  0.011  0.004  0.034  0.091
  2  0.022  0.000  0.000  0.017  0.173  0.046  0.002  0.173  0.006  0.440
  3  0.008  0.036  0.036  0.127  0.000  0.000  0.000  0.000  0.000  0.207
  4  0.008  0.036  0.036  0.127  0.000  0.000  0.000  0.000  0.000  0.207
tot  0.046  0.075  0.075  0.292  0.178  0.048  0.014  0.178  0.041  0.946
 
band  15 # energy    2.82726162 # occ.  1.00000000
 
ion      s     py     pz     px    dxy    dyz    dz2    dxz    dx2    tot
  1  0.002  0.005  0.005  0.004  0.010  0.019  0.029  0.010  0.087  0.170
  2  0.004  0.010  0.010  0.002  0.003  0.002  0.009  0.003  0.027  0.072
  3  0.004  0.126  0.126  0.095  0.000  0.000  0.000  0.000  0.000  0.350
  4  0.004  0.126  0.126  0.095  0.000  0.000  0.000  0.000  0.000  0.350
tot  0.013  0.266  0.266  0.196  0.014  0.021  0.038  0.014  0.114  0.943
 
band  16 # energy    3.10461845 # occ.  1.00000000
 
ion      s     py     pz     px    dxy    dyz    dz2    dxz    dx2    tot
  1  0.000  0.002  0.002  0.000  0.005  0.000  0.085  0.005  0.028  0.128
  2  0.000  0.017  0.017  0.000  0.033  0.000  0.009  0.033  0.003  0.113
  3  0.000  0.177  0.177  0.000  0.000  0.000  0.000  0.000  0.000  0.355
  4  0.000  0.177  0.177  0.000  0.000  0.000  0.000  0.000  0.000  0.355
tot  0.000  0.374  0.374  0.000  0.038  0.000  0.094  0.038  0.031  0.950
 
band  17 # energy    7.22502615 # occ.  0.00000000
 
ion      s     py     pz     px    dxy    dyz    dz2    dxz    dx2    tot
  1  0.037  0.003  0.003  0.001  0.000  0.000  0.000  0.000  0.000  0.045
  2  0.005  0.001  0.001  0.002  0.000  0.001  0.197  0.000  0.591  0.798
  3  0.021  0.010  0.010  0.010  0.000  0.000  0.000  0.000  0.000  0.051
  4  0.021  0.010  0.010  0.010  0.000  0.000  0.000  0.000  0.000  0.051
tot  0.085  0.024  0.024  0.023  0.000  0.001  0.197  0.000  0.591  0.945
 
band  18 # energy    7.56536567 # occ.  0.00000000
 
ion      s     py     pz     px    dxy    dyz    dz2    dxz    dx2    tot
  1  0.000  0.005  0.005  0.000  0.000  0.000  0.012  0.000  0.004  0.027
  2  0.000  0.000  0.000  0.000  0.000  0.000  0.605  0.000  0.202  0.807
  3  0.000  0.036  0.036  0.000  0.000  0.000  0.000  0.000  0.000  0.072
  4  0.000  0.036  0.036  0.000  0.000  0.000  0.000  0.000  0.000  0.072
tot  0.000  0.077  0.077  0.000  0.000  0.000  0.617  0.000  0.206  0.977
 
band  19 # energy   10.05241168 # occ.  0.00000000
 
ion      s     py     pz     px    dxy    dyz    dz2    dxz    dx2    tot
  1  0.107  0.004  0.004  0.023  0.000  0.000  0.002  0.000  0.007  0.149
  2  0.117  0.006  0.006  0.017  0.000  0.000  0.014  0.000  0.041  0.202
  3  0.074  0.006  0.006  0.130  0.000  0.000  0.000  0.000  0.000  0.216
  4  0.074  0.006  0.006  0.130  0.000  0.000  0.000  0.000  0.000  0.216
tot  0.373  0.021  0.021  0.300  0.001  0.001  0.016  0.001  0.048  0.783
 
band  20 # energy   13.43165777 # occ.  0.00000000
 
ion      s     py     pz     px    dxy    dyz    dz2    dxz    dx2    tot
  1  0.001  0.067  0.067  0.013  0.002  0.023  0.001  0.002  0.004  0.179
  2  0.001  0.064  0.064  0.015  0.002  0.022  0.002  0.002  0.006  0.178
  3  0.037  0.021  0.021  0.024  0.000  0.000  0.000  0.000  0.000  0.102
  4  0.037  0.021  0.021  0.024  0.000  0.000  0.000  0.000  0.000  0.102
tot  0.076  0.173  0.173  0.076  0.003  0.045  0.003  0.003  0.010  0.562
 

 k-point    3 :    0.50000000-0.00000000-0.00000000     weight = 0.04687500

band   1 # energy  -13.08644172 # occ.  1.00000000
 
ion      s     py     pz     px    dxy    dyz    dz2    dxz    dx2    tot
  1  0.009  0.000  0.000  0.000  0.000  0.000  0.014  0.000  0.043  0.066
  2  0.000  0.010  0.010  0.012  0.000  0.000  0.000  0.000  0.000  0.031
  3  0.426  0.000  0.000  0.000  0.000  0.000  0.000  0.000  0.000  0.426
  4  0.426  0.000  0.000  0.000  0.000  0.000  0.000  0.000  0.000  0.426
tot  0.861  0.010  0.010  0.012  0.000  0.000  0.014  0.000  0.043  0.951
 
band   2 # energy  -12.82942042 # occ.  1.00000000
 
ion      s     py     pz     px    dxy    dyz    dz2    dxz    dx2    tot
  1  0.000  0.011  0.011  0.013  0.000  0.000  0.000  0.000  0.000  0.035
  2  0.009  0.000  0.000  0.000  0.000  0.000  0.007  0.000  0.020  0.036
  3  0.437  0.000  0.000  0.000  0.000  0.000  0.000  0.000  0.000  0.438
  4  0.437  0.000  0.000  0.000  0.000  0.000  0.000  0.000  0.000  0.438
tot  0.884  0.011  0.011  0.014  0.000  0.000  0.007  0.000  0.020  0.946
 
band   3 # energy   -2.84351489 # occ.  1.00000000
 
ion      s     py     pz     px    dxy    dyz    dz2    dxz    dx2    tot
  1  0.037  0.000  0.000  0.000  0.074  0.010  0.091  0.074  0.274  0.559
  2  0.000  0.000  0.000  0.052  0.000  0.000  0.000  0.000  0.000  0.052
  3  0.002  0.001  0.001  0.138  0.000  0.000  0.000  0.000  0.000  0.143
  4  0.002  0.001  0.001  0.138  0.000  0.000  0.000  0.000  0.000  0.143
tot  0.040  0.003  0.003  0.328  0.074  0.010  0.091  0.074  0.274  0.897
 
band   4 # energy   -2.63068930 # occ.  1.00000000
 
ion      s     py     pz     px    dxy    dyz    dz2    dxz    dx2    tot
  1  0.000  0.000  0.000  0.000  0.014  0.000  0.592  0.014  0.197  0.817
  2  0.000  0.004  0.004  0.000  0.000  0.000  0.000  0.000  0.000  0.008
  3  0.000  0.037  0.037  0.000  0.000  0.000  0.000  0.000  0.000  0.075
  4  0.000  0.037  0.037  0.000  0.000  0.000  0.000  0.000  0.000  0.075
tot  0.000  0.078  0.078  0.000  0.014  0.000  0.592  0.014  0.197  0.974
 
band   5 # energy   -2.46656614 # occ.  1.00000000
 
ion      s     py     pz     px    dxy    dyz    dz2    dxz    dx2    tot
  1  0.034  0.000  0.000  0.000  0.034  0.349  0.051  0.034  0.154  0.656
  2  0.000  0.012  0.012  0.000  0.000  0.000  0.000  0.000  0.000  0.024
  3  0.006  0.052  0.052  0.000  0.000  0.000  0.000  0.000  0.000  0.110
  4  0.006  0.052  0.052  0.000  0.000  0.000  0.000  0.000  0.000  0.110
tot  0.046  0.116  0.116  0.000  0.034  0.349  0.051  0.034  0.154  0.900
 
band   6 # energy   -2.22427741 # occ.  1.00000000
 
ion      s     py     pz     px    dxy    dyz    dz2    dxz    dx2    tot
  1  0.000  0.009  0.009  0.039  0.000  0.000  0.000  0.000  0.000  0.057
  2  0.090  0.000  0.000  0.000  0.084  0.125  0.001  0.084  0.002  0.386
  3  0.002  0.045  0.045  0.104  0.000  0.000  0.000  0.000  0.000  0.197
  4  0.002  0.045  0.045  0.104  0.000  0.000  0.000  0.000  0.000  0.197
tot  0.094  0.099  0.099  0.248  0.084  0.125  0.001  0.084  0.002  0.835
 
band   7 # energy   -0.87464893 # occ.  1.00000000
 
ion      s     py     pz     px    dxy    dyz    dz2    dxz    dx2    tot
  1  0.005  0.000  0.000  0.000  0.146  0.465  0.041  0.146  0.123  0.927
  2  0.000  0.000  0.000  0.002  0.000  0.000  0.000  0.000  0.000  0.003
  3  0.006  0.004  0.004  0.004  0.000  0.000  0.000  0.000  0.000  0.018
  4  0.006  0.004  0.004  0.004  0.000  0.000  0.000  0.000  0.000  0.018
tot  0.017  0.008  0.008  0.010  0.146  0.465  0.041  0.146  0.123  0.964
 
band   8 # energy   -0.73222813 # occ.  1.00000000
 
ion      s     py     pz     px    dxy    dyz    dz2    dxz    dx2    tot
  1  0.000  0.006  0.006  0.039  0.000  0.000  0.000  0.000  0.000  0.052
  2  0.000  0.000  0.000  0.000  0.030  0.456  0.011  0.030  0.033  0.561
  3  0.001  0.020  0.020  0.099  0.000  0.000  0.000  0.000  0.000  0.140
  4  0.001  0.020  0.020  0.099  0.000  0.000  0.000  0.000  0.000  0.140
tot  0.002  0.046  0.046  0.237  0.030  0.456  0.011  0.030  0.033  0.892
 
band   9 # energy   -0.45625604 # occ.  1.00000000
 
ion      s     py     pz     px    dxy    dyz    dz2    dxz    dx2    tot
  1  0.000  0.000  0.000  0.000  0.465  0.000  0.038  0.465  0.013  0.980
  2  0.000  0.001  0.001  0.000  0.000  0.000  0.000  0.000  0.000  0.001
  3  0.000  0.001  0.001  0.000  0.000  0.000  0.000  0.000  0.000  0.002
  4  0.000  0.001  0.001  0.000  0.000  0.000  0.000  0.000  0.000  0.002
tot  0.000  0.003  0.003  0.000  0.465  0.000  0.038  0.465  0.013  0.986
 
band  10 # energy    0.28839868 # occ.  1.00000000
 
ion      s     py     pz     px    dxy    dyz    dz2    dxz    dx2    tot
  1  0.000  0.010  0.010  0.000  0.000  0.000  0.000  0.000  0.000  0.020
  2  0.000  0.000  0.000  0.000  0.323  0.000  0.034  0.323  0.011  0.691
  3  0.000  0.061  0.061  0.000  0.000  0.000  0.000  0.000  0.000  0.121
  4  0.000  0.061  0.061  0.000  0.000  0.000  0.000  0.000  0.000  0.121
tot  0.000  0.131  0.131  0.000  0.323  0.000  0.034  0.323  0.011  0.952
 
band  11 # energy    0.75691134 # occ.  1.00000000
 
ion      s     py     pz     px    dxy    dyz    dz2    dxz    dx2    tot
  1  0.066  0.000  0.000  0.000  0.243  0.078  0.004  0.243  0.011  0.644
  2  0.000  0.003  0.003  0.019  0.000  0.000  0.000  0.000  0.000  0.026
  3  0.003  0.036  0.036  0.066  0.000  0.000  0.000  0.000  0.000  0.141
  4  0.003  0.036  0.036  0.066  0.000  0.000  0.000  0.000  0.000  0.141
tot  0.072  0.075  0.075  0.151  0.243  0.078  0.004  0.243  0.011  0.952
 
band  12 # energy    1.24664236 # occ.  1.00000000
 
ion      s     py     pz     px    dxy    dyz    dz2    dxz    dx2    tot
  1  0.000  0.005  0.005  0.030  0.000  0.000  0.000  0.000  0.000  0.040
  2  0.001  0.000  0.000  0.000  0.167  0.192  0.015  0.167  0.046  0.589
  3  0.000  0.035  0.035  0.093  0.000  0.000  0.000  0.000  0.000  0.163
  4  0.000  0.035  0.035  0.093  0.000  0.000  0.000  0.000  0.000  0.163
tot  0.001  0.074  0.074  0.217  0.167  0.192  0.015  0.167  0.046  0.955
 
band  13 # energy    1.65969922 # occ.  1.00000000
 
ion      s     py     pz     px    dxy    dyz    dz2    dxz    dx2    tot
  1  0.000  0.007  0.007  0.001  0.000  0.000  0.000  0.000  0.000  0.014
  2  0.054  0.000  0.000  0.000  0.216  0.177  0.002  0.216  0.006  0.672
  3  0.001  0.066  0.066  0.007  0.000  0.000  0.000  0.000  0.000  0.140
  4  0.001  0.066  0.066  0.007  0.000  0.000  0.000  0.000  0.000  0.140
tot  0.056  0.139  0.139  0.014  0.216  0.177  0.002  0.216  0.006  0.965
 
band  14 # energy    1.75175305 # occ.  1.00000000
 
ion      s     py     pz     px    dxy    dyz    dz2    dxz    dx2    tot
  1  0.000  0.016  0.016  0.000  0.000  0.000  0.000  0.000  0.000  0.032
  2  0.000  0.000  0.000  0.000  0.172  0.000  0.082  0.172  0.027  0.453
  3  0.000  0.119  0.119  0.000  0.000  0.000  0.000  0.000  0.000  0.238
  4  0.000  0.119  0.119  0.000  0.000  0.000  0.000  0.000  0.000  0.238
tot  0.000  0.254  0.254  0.000  0.172  0.000  0.082  0.172  0.027  0.961
 
band  15 # energy    2.33097114 # occ.  1.00000000
 
ion      s     py     pz     px    dxy    dyz    dz2    dxz    dx2    tot
  1  0.009  0.000  0.000  0.000  0.002  0.056  0.059  0.002  0.177  0.305
  2  0.000  0.013  0.013  0.045  0.000  0.000  0.000  0.000  0.000  0.071
  3  0.009  0.078  0.078  0.109  0.000  0.000  0.000  0.000  0.000  0.274
  4  0.009  0.078  0.078  0.109  0.000  0.000  0.000  0.000  0.000  0.274
tot  0.028  0.169  0.169  0.263  0.002  0.056  0.059  0.002  0.177  0.924
 
band  16 # energy    2.94626761 # occ.  1.00000000
 
ion      s     py     pz     px    dxy    dyz    dz2    dxz    dx2    tot
  1  0.000  0.000  0.000  0.000  0.017  0.000  0.140  0.017  0.047  0.221
  2  0.000  0.027  0.027  0.000  0.000  0.000  0.000  0.000  0.000  0.054
  3  0.000  0.167  0.167  0.000  0.000  0.000  0.000  0.000  0.000  0.334
  4  0.000  0.167  0.167  0.000  0.000  0.000  0.000  0.000  0.000  0.334
tot  0.000  0.361  0.361  0.000  0.017  0.000  0.140  0.017  0.047  0.943
 
band  17 # energy    7.53302033 # occ.  0.00000000
 
ion      s     py     pz     px    dxy    dyz    dz2    dxz    dx2    tot
  1  0.000  0.009  0.009  0.000  0.000  0.000  0.000  0.000  0.000  0.017
  2  0.000  0.000  0.000  0.000  0.000  0.000  0.634  0.000  0.211  0.846
  3  0.000  0.028  0.028  0.000  0.000  0.000  0.000  0.000  0.000  0.056
  4  0.000  0.028  0.028  0.000  0.000  0.000  0.000  0.000  0.000  0.056
tot  0.000  0.064  0.064  0.000  0.000  0.000  0.634  0.000  0.211  0.975
 
band  18 # energy    7.57901665 # occ.  0.00000000
 
ion      s     py     pz     px    dxy    dyz    dz2    dxz    dx2    tot
  1  0.000  0.005  0.005  0.014  0.000  0.000  0.000  0.000  0.000  0.023
  2  0.000  0.000  0.000  0.000  0.000  0.002  0.212  0.000  0.635  0.849
  3  0.020  0.008  0.008  0.012  0.000  0.000  0.000  0.000  0.000  0.047
  4  0.020  0.008  0.008  0.012  0.000  0.000  0.000  0.000  0.000  0.047
tot  0.041  0.020  0.020  0.038  0.000  0.002  0.212  0.000  0.635  0.967
 
band  19 # energy   12.70803400 # occ.  0.00000000
 
ion      s     py     pz     px    dxy    dyz    dz2    dxz    dx2    tot
  1  0.300  0.000  0.000  0.000  0.001  0.018  0.003  0.001  0.008  0.330
  2  0.000  0.059  0.059  0.008  0.000  0.000  0.000  0.000  0.000  0.126
  3  0.035  0.006  0.006  0.080  0.000  0.000  0.000  0.000  0.000  0.127
  4  0.035  0.006  0.006  0.080  0.000  0.000  0.000  0.000  0.000  0.127
tot  0.370  0.071  0.071  0.169  0.001  0.018  0.003  0.001  0.008  0.711
 
band  20 # energy   12.94349414 # occ.  0.00000000
 
ion      s     py     pz     px    dxy    dyz    dz2    dxz    dx2    tot
  1  0.000  0.062  0.062  0.010  0.000  0.000  0.000  0.000  0.000  0.133
  2  0.277  0.000  0.000  0.000  0.001  0.020  0.006  0.001  0.018  0.322
  3  0.031  0.003  0.003  0.090  0.000  0.000  0.000  0.000  0.000  0.127
  4  0.031  0.003  0.003  0.090  0.000  0.000  0.000  0.000  0.000  0.127
tot  0.339  0.068  0.068  0.190  0.001  0.020  0.006  0.001  0.018  0.709
 

 k-point    4 :    0.25000000 0.25000000 0.00000000     weight = 0.09375000

band   1 # energy  -13.77168102 # occ.  1.00000000
 
ion      s     py     pz     px    dxy    dyz    dz2    dxz    dx2    tot
  1  0.039  0.005  0.005  0.005  0.000  0.000  0.000  0.000  0.000  0.054
  2  0.037  0.005  0.005  0.005  0.000  0.000  0.000  0.000  0.000  0.052
  3  0.403  0.000  0.000  0.000  0.000  0.000  0.000  0.000  0.000  0.404
  4  0.403  0.000  0.000  0.000  0.000  0.000  0.000  0.000  0.000  0.404
tot  0.883  0.011  0.011  0.011  0.000  0.000  0.000  0.000  0.000  0.915
 
band   2 # energy  -12.96001110 # occ.  1.00000000
 
ion      s     py     pz     px    dxy    dyz    dz2    dxz    dx2    tot
  1  0.004  0.005  0.006  0.005  0.000  0.000  0.030  0.000  0.000  0.051
  2  0.005  0.005  0.006  0.005  0.000  0.000  0.013  0.000  0.000  0.034
  3  0.432  0.000  0.000  0.000  0.000  0.000  0.000  0.000  0.000  0.432
  4  0.432  0.000  0.000  0.000  0.000  0.000  0.000  0.000  0.000  0.432
tot  0.872  0.010  0.013  0.010  0.000  0.000  0.043  0.000  0.000  0.948
 
band   3 # energy   -2.73846429 # occ.  1.00000000
 
ion      s     py     pz     px    dxy    dyz    dz2    dxz    dx2    tot
  1  0.008  0.000  0.016  0.000  0.003  0.020  0.570  0.020  0.000  0.637
  2  0.011  0.000  0.020  0.000  0.003  0.013  0.000  0.013  0.000  0.060
  3  0.002  0.005  0.105  0.005  0.000  0.000  0.000  0.000  0.000  0.116
  4  0.002  0.005  0.105  0.005  0.000  0.000  0.000  0.000  0.000  0.116
tot  0.022  0.009  0.246  0.009  0.006  0.033  0.570  0.033  0.000  0.928
 
band   4 # energy   -2.63360947 # occ.  1.00000000
 
ion      s     py     pz     px    dxy    dyz    dz2    dxz    dx2    tot
  1  0.000  0.000  0.000  0.000  0.000  0.000  0.000  0.000  0.821  0.821
  2  0.000  0.002  0.000  0.002  0.000  0.007  0.000  0.007  0.000  0.017
  3  0.000  0.034  0.000  0.034  0.000  0.000  0.000  0.000  0.000  0.068
  4  0.000  0.034  0.000  0.034  0.000  0.000  0.000  0.000  0.000  0.068
tot  0.000  0.070  0.000  0.070  0.000  0.007  0.000  0.007  0.821  0.974
 
band   5 # energy   -2.39063782 # occ.  1.00000000
 
ion      s     py     pz     px    dxy    dyz    dz2    dxz    dx2    tot
  1  0.029  0.005  0.006  0.005  0.213  0.059  0.111  0.059  0.000  0.486
  2  0.029  0.006  0.003  0.006  0.052  0.014  0.001  0.014  0.000  0.125
  3  0.004  0.051  0.029  0.051  0.000  0.000  0.000  0.000  0.000  0.133
  4  0.004  0.051  0.029  0.051  0.000  0.000  0.000  0.000  0.000  0.133
tot  0.065  0.112  0.066  0.112  0.265  0.073  0.112  0.073  0.000  0.878
 
band   6 # energy   -1.86949570 # occ.  1.00000000
 
ion      s     py     pz     px    dxy    dyz    dz2    dxz    dx2    tot
  1  0.028  0.001  0.002  0.001  0.186  0.140  0.017  0.140  0.000  0.514
  2  0.024  0.002  0.002  0.002  0.025  0.050  0.000  0.050  0.000  0.153
  3  0.008  0.031  0.045  0.031  0.000  0.000  0.000  0.000  0.000  0.115
  4  0.008  0.031  0.045  0.031  0.000  0.000  0.000  0.000  0.000  0.115
tot  0.068  0.064  0.094  0.064  0.211  0.189  0.017  0.189  0.000  0.896
 
band   7 # energy   -0.86425754 # occ.  1.00000000
 
ion      s     py     pz     px    dxy    dyz    dz2    dxz    dx2    tot
  1  0.000  0.002  0.000  0.002  0.000  0.440  0.000  0.440  0.000  0.885
  2  0.000  0.000  0.000  0.000  0.000  0.011  0.000  0.011  0.009  0.030
  3  0.000  0.013  0.000  0.013  0.000  0.000  0.000  0.000  0.000  0.025
  4  0.000  0.013  0.000  0.013  0.000  0.000  0.000  0.000  0.000  0.025
tot  0.000  0.027  0.000  0.027  0.000  0.451  0.000  0.451  0.009  0.965
 
band   8 # energy   -0.68957700 # occ.  1.00000000
 
ion      s     py     pz     px    dxy    dyz    dz2    dxz    dx2    tot
  1  0.017  0.001  0.007  0.001  0.268  0.008  0.106  0.008  0.000  0.417
  2  0.000  0.000  0.010  0.000  0.183  0.070  0.016  0.070  0.000  0.349
  3  0.006  0.016  0.041  0.016  0.000  0.000  0.000  0.000  0.000  0.079
  4  0.006  0.016  0.041  0.016  0.000  0.000  0.000  0.000  0.000  0.079
tot  0.029  0.033  0.100  0.033  0.451  0.078  0.123  0.078  0.000  0.925
 
band   9 # energy   -0.43913871 # occ.  1.00000000
 
ion      s     py     pz     px    dxy    dyz    dz2    dxz    dx2    tot
  1  0.003  0.003  0.001  0.003  0.207  0.095  0.009  0.095  0.000  0.415
  2  0.007  0.001  0.000  0.001  0.346  0.038  0.009  0.038  0.000  0.440
  3  0.000  0.020  0.007  0.020  0.000  0.000  0.000  0.000  0.000  0.048
  4  0.000  0.020  0.007  0.020  0.000  0.000  0.000  0.000  0.000  0.048
tot  0.011  0.044  0.015  0.044  0.553  0.133  0.018  0.133  0.000  0.951
 
band  10 # energy    0.46424687 # occ.  1.00000000
 
ion      s     py     pz     px    dxy    dyz    dz2    dxz    dx2    tot
  1  0.000  0.000  0.000  0.000  0.000  0.007  0.000  0.007  0.041  0.057
  2  0.000  0.002  0.000  0.002  0.000  0.439  0.000  0.439  0.003  0.884
  3  0.000  0.008  0.000  0.008  0.000  0.000  0.000  0.000  0.000  0.017
  4  0.000  0.008  0.000  0.008  0.000  0.000  0.000  0.000  0.000  0.017
tot  0.000  0.019  0.000  0.019  0.000  0.446  0.000  0.446  0.044  0.974
 
band  11 # energy    0.91559029 # occ.  1.00000000
 
ion      s     py     pz     px    dxy    dyz    dz2    dxz    dx2    tot
  1  0.003  0.000  0.024  0.000  0.013  0.164  0.012  0.164  0.000  0.379
  2  0.041  0.000  0.009  0.000  0.020  0.039  0.038  0.039  0.000  0.185
  3  0.006  0.006  0.168  0.006  0.000  0.000  0.000  0.000  0.000  0.187
  4  0.006  0.006  0.168  0.006  0.000  0.000  0.000  0.000  0.000  0.187
tot  0.056  0.013  0.369  0.013  0.032  0.203  0.049  0.203  0.000  0.938
 
band  12 # energy    1.49634328 # occ.  1.00000000
 
ion      s     py     pz     px    dxy    dyz    dz2    dxz    dx2    tot
  1  0.066  0.000  0.001  0.000  0.046  0.000  0.001  0.000  0.000  0.113
  2  0.008  0.001  0.002  0.001  0.020  0.254  0.000  0.254  0.000  0.542
  3  0.010  0.049  0.037  0.049  0.000  0.000  0.000  0.000  0.000  0.146
  4  0.010  0.049  0.037  0.049  0.000  0.000  0.000  0.000  0.000  0.146
tot  0.095  0.100  0.076  0.100  0.066  0.254  0.001  0.254  0.000  0.947
 
band  13 # energy    1.57508914 # occ.  1.00000000
 
ion      s     py     pz     px    dxy    dyz    dz2    dxz    dx2    tot
  1  0.005  0.007  0.006  0.007  0.010  0.006  0.016  0.006  0.000  0.062
  2  0.033  0.004  0.003  0.004  0.308  0.006  0.063  0.006  0.000  0.425
  3  0.001  0.101  0.025  0.101  0.000  0.000  0.000  0.000  0.000  0.228
  4  0.001  0.101  0.025  0.101  0.000  0.000  0.000  0.000  0.000  0.228
tot  0.039  0.212  0.059  0.212  0.318  0.011  0.079  0.011  0.000  0.943
 
band  14 # energy    1.69492344 # occ.  1.00000000
 
ion      s     py     pz     px    dxy    dyz    dz2    dxz    dx2    tot
  1  0.000  0.014  0.000  0.014  0.000  0.043  0.000  0.043  0.004  0.117
  2  0.000  0.003  0.000  0.003  0.000  0.009  0.000  0.009  0.155  0.178
  3  0.000  0.162  0.000  0.162  0.000  0.000  0.000  0.000  0.000  0.324
  4  0.000  0.162  0.000  0.162  0.000  0.000  0.000  0.000  0.000  0.324
tot  0.000  0.341  0.000  0.341  0.000  0.052  0.000  0.052  0.159  0.944
 
band  15 # energy    3.16928670 # occ.  1.00000000
 
ion      s     py     pz     px    dxy    dyz    dz2    dxz    dx2    tot
  1  0.000  0.000  0.000  0.000  0.020  0.001  0.163  0.001  0.000  0.184
  2  0.000  0.005  0.020  0.005  0.002  0.008  0.031  0.008  0.000  0.079
  3  0.004  0.059  0.222  0.059  0.000  0.000  0.000  0.000  0.000  0.343
  4  0.004  0.059  0.222  0.059  0.000  0.000  0.000  0.000  0.000  0.343
tot  0.009  0.122  0.463  0.122  0.022  0.009  0.194  0.009  0.000  0.950
 
band  16 # energy    3.34949917 # occ.  1.00000000
 
ion      s     py     pz     px    dxy    dyz    dz2    dxz    dx2    tot
  1  0.000  0.000  0.000  0.000  0.000  0.000  0.000  0.000  0.159  0.160
  2  0.000  0.015  0.000  0.015  0.000  0.025  0.000  0.025  0.010  0.091
  3  0.000  0.176  0.000  0.176  0.000  0.000  0.000  0.000  0.000  0.351
  4  0.000  0.176  0.000  0.176  0.000  0.000  0.000  0.000  0.000  0.351
tot  0.000  0.367  0.000  0.367  0.000  0.026  0.000  0.026  0.169  0.954
 
band  17 # energy    7.49819732 # occ.  0.00000000
 
ion      s     py     pz     px    dxy    dyz    dz2    dxz    dx2    tot
  1  0.000  0.008  0.000  0.008  0.000  0.000  0.000  0.000  0.000  0.016
  2  0.000  0.000  0.000  0.000  0.000  0.000  0.000  0.000  0.816  0.817
  3  0.000  0.035  0.000  0.035  0.000  0.000  0.000  0.000  0.000  0.070
  4  0.000  0.035  0.000  0.035  0.000  0.000  0.000  0.000  0.000  0.070
tot  0.000  0.077  0.000  0.077  0.000  0.001  0.000  0.001  0.816  0.972
 
band  18 # energy    7.52324145 # occ.  0.00000000
 
ion      s     py     pz     px    dxy    dyz    dz2    dxz    dx2    tot
  1  0.000  0.003  0.011  0.003  0.000  0.000  0.000  0.000  0.000  0.018
  2  0.000  0.000  0.000  0.000  0.002  0.000  0.817  0.000  0.000  0.819
  3  0.010  0.011  0.034  0.011  0.000  0.000  0.000  0.000  0.000  0.066
  4  0.010  0.011  0.034  0.011  0.000  0.000  0.000  0.000  0.000  0.066
tot  0.020  0.025  0.080  0.025  0.002  0.000  0.817  0.000  0.000  0.968
 
band  19 # energy    9.76163056 # occ.  0.00000000
 
ion      s     py     pz     px    dxy    dyz    dz2    dxz    dx2    tot
  1  0.114  0.019  0.019  0.019  0.001  0.001  0.000  0.001  0.000  0.175
  2  0.101  0.020  0.019  0.020  0.001  0.001  0.000  0.001  0.000  0.163
  3  0.089  0.035  0.034  0.035  0.000  0.000  0.000  0.000  0.000  0.193
  4  0.089  0.035  0.034  0.035  0.000  0.000  0.000  0.000  0.000  0.193
tot  0.393  0.108  0.108  0.108  0.002  0.002  0.000  0.002  0.000  0.724
 
band  20 # energy   12.82520779 # occ.  0.00000000
 
ion      s     py     pz     px    dxy    dyz    dz2    dxz    dx2    tot
  1  0.142  0.032  0.003  0.032  0.009  0.000  0.006  0.000  0.000  0.225
  2  0.146  0.029  0.006  0.029  0.010  0.000  0.011  0.000  0.000  0.231
  3  0.033  0.004  0.085  0.004  0.000  0.000  0.000  0.000  0.000  0.127
  4  0.033  0.004  0.085  0.004  0.000  0.000  0.000  0.000  0.000  0.127
tot  0.354  0.069  0.179  0.069  0.019  0.001  0.017  0.001  0.000  0.709
 

 k-point    5 :    0.50000000 0.25000000 0.00000000     weight = 0.18750000

band   1 # energy  -13.06463084 # occ.  1.00000000
 
ion      s     py     pz     px    dxy    dyz    dz2    dxz    dx2    tot
  1  0.007  0.003  0.007  0.008  0.000  0.000  0.003  0.000  0.020  0.049
  2  0.009  0.000  0.010  0.011  0.000  0.000  0.000  0.000  0.006  0.037
  3  0.428  0.000  0.000  0.000  0.000  0.000  0.000  0.000  0.000  0.428
  4  0.428  0.000  0.000  0.000  0.000  0.000  0.000  0.000  0.000  0.428
tot  0.871  0.004  0.017  0.020  0.000  0.000  0.003  0.000  0.027  0.942
 
band   2 # energy  -12.85372557 # occ.  1.00000000
 
ion      s     py     pz     px    dxy    dyz    dz2    dxz    dx2    tot
  1  0.003  0.007  0.004  0.004  0.000  0.000  0.036  0.000  0.001  0.054
  2  0.000  0.010  0.000  0.000  0.000  0.000  0.016  0.000  0.003  0.030
  3  0.435  0.000  0.000  0.000  0.000  0.000  0.000  0.000  0.000  0.435
  4  0.435  0.000  0.000  0.000  0.000  0.000  0.000  0.000  0.000  0.435
tot  0.873  0.017  0.004  0.004  0.000  0.000  0.052  0.000  0.004  0.955
 
band   3 # energy   -3.01461258 # occ.  1.00000000
 
ion      s     py     pz     px    dxy    dyz    dz2    dxz    dx2    tot
  1  0.013  0.001  0.000  0.006  0.012  0.012  0.029  0.063  0.440  0.576
  2  0.041  0.000  0.000  0.008  0.001  0.000  0.000  0.032  0.001  0.084
  3  0.000  0.023  0.027  0.078  0.000  0.000  0.000  0.000  0.000  0.128
  4  0.000  0.023  0.027  0.078  0.000  0.000  0.000  0.000  0.000  0.128
tot  0.055  0.048  0.054  0.170  0.013  0.012  0.029  0.096  0.441  0.917
 
band   4 # energy   -2.49310893 # occ.  1.00000000
 
ion      s     py     pz     px    dxy    dyz    dz2    dxz    dx2    tot
  1  0.000  0.000  0.006  0.000  0.004  0.010  0.652  0.002  0.029  0.702
  2  0.000  0.001  0.012  0.007  0.013  0.010  0.005  0.000  0.002  0.048
  3  0.008  0.004  0.063  0.029  0.000  0.000  0.000  0.000  0.000  0.103
  4  0.008  0.004  0.063  0.029  0.000  0.000  0.000  0.000  0.000  0.103
tot  0.015  0.009  0.143  0.064  0.016  0.020  0.657  0.002  0.030  0.957
 
band   5 # energy   -2.12836445 # occ.  1.00000000
 
ion      s     py     pz     px    dxy    dyz    dz2    dxz    dx2    tot
  1  0.001  0.010  0.010  0.006  0.202  0.249  0.001  0.000  0.136  0.615
  2  0.019  0.007  0.004  0.005  0.001  0.011  0.001  0.018  0.000  0.066
  3  0.002  0.045  0.034  0.026  0.000  0.000  0.000  0.000  0.000  0.107
  4  0.002  0.045  0.034  0.026  0.000  0.000  0.000  0.000  0.000  0.107
tot  0.024  0.108  0.083  0.063  0.203  0.260  0.002  0.018  0.136  0.895
 
band   6 # energy   -2.02200611 # occ.  1.00000000
 
ion      s     py     pz     px    dxy    dyz    dz2    dxz    dx2    tot
  1  0.062  0.001  0.009  0.001  0.024  0.003  0.012  0.118  0.080  0.311
  2  0.000  0.008  0.015  0.010  0.091  0.099  0.000  0.004  0.006  0.235
  3  0.003  0.068  0.055  0.035  0.000  0.000  0.000  0.000  0.000  0.161
  4  0.003  0.068  0.055  0.035  0.000  0.000  0.000  0.000  0.000  0.161
tot  0.069  0.145  0.134  0.082  0.115  0.103  0.013  0.122  0.087  0.869
 
band   7 # energy   -1.45383534 # occ.  1.00000000
 
ion      s     py     pz     px    dxy    dyz    dz2    dxz    dx2    tot
  1  0.000  0.000  0.013  0.013  0.322  0.242  0.057  0.001  0.000  0.650
  2  0.000  0.000  0.009  0.003  0.055  0.007  0.011  0.000  0.004  0.091
  3  0.002  0.000  0.044  0.039  0.000  0.000  0.000  0.000  0.000  0.086
  4  0.002  0.000  0.044  0.039  0.000  0.000  0.000  0.000  0.000  0.086
tot  0.004  0.001  0.111  0.095  0.378  0.250  0.068  0.001  0.005  0.912
 
band   8 # energy   -0.84012212 # occ.  1.00000000
 
ion      s     py     pz     px    dxy    dyz    dz2    dxz    dx2    tot
  1  0.002  0.008  0.012  0.005  0.027  0.075  0.000  0.140  0.100  0.369
  2  0.007  0.004  0.008  0.000  0.033  0.168  0.008  0.093  0.012  0.333
  3  0.003  0.033  0.054  0.018  0.000  0.000  0.000  0.000  0.000  0.108
  4  0.003  0.033  0.054  0.018  0.000  0.000  0.000  0.000  0.000  0.108
tot  0.015  0.077  0.129  0.041  0.060  0.243  0.008  0.233  0.112  0.918
 
band   9 # energy   -0.04214814 # occ.  1.00000000
 
ion      s     py     pz     px    dxy    dyz    dz2    dxz    dx2    tot
  1  0.011  0.000  0.003  0.000  0.005  0.128  0.017  0.460  0.001  0.626
  2  0.005  0.001  0.002  0.001  0.163  0.004  0.002  0.077  0.003  0.258
  3  0.001  0.010  0.020  0.012  0.000  0.000  0.000  0.000  0.000  0.043
  4  0.001  0.010  0.020  0.012  0.000  0.000  0.000  0.000  0.000  0.043
tot  0.018  0.021  0.045  0.025  0.168  0.133  0.019  0.537  0.004  0.969
 
band  10 # energy    0.09854427 # occ.  1.00000000
 
ion      s     py     pz     px    dxy    dyz    dz2    dxz    dx2    tot
  1  0.003  0.001  0.002  0.012  0.207  0.028  0.014  0.116  0.001  0.383
  2  0.002  0.000  0.003  0.003  0.219  0.138  0.000  0.078  0.010  0.452
  3  0.001  0.008  0.010  0.044  0.000  0.000  0.000  0.000  0.000  0.062
  4  0.001  0.008  0.010  0.044  0.000  0.000  0.000  0.000  0.000  0.062
tot  0.006  0.017  0.024  0.103  0.426  0.166  0.015  0.194  0.010  0.960
 
band  11 # energy    0.95890633 # occ.  1.00000000
 
ion      s     py     pz     px    dxy    dyz    dz2    dxz    dx2    tot
  1  0.033  0.010  0.007  0.000  0.047  0.166  0.005  0.050  0.001  0.318
  2  0.013  0.001  0.006  0.004  0.015  0.222  0.001  0.019  0.027  0.309
  3  0.000  0.099  0.038  0.024  0.000  0.000  0.000  0.000  0.000  0.162
  4  0.000  0.099  0.038  0.024  0.000  0.000  0.000  0.000  0.000  0.162
tot  0.047  0.209  0.089  0.053  0.063  0.387  0.007  0.069  0.028  0.950
 
band  12 # energy    1.18813142 # occ.  1.00000000
 
ion      s     py     pz     px    dxy    dyz    dz2    dxz    dx2    tot
  1  0.009  0.003  0.017  0.017  0.063  0.023  0.000  0.001  0.020  0.153
  2  0.006  0.000  0.010  0.005  0.134  0.147  0.052  0.011  0.000  0.364
  3  0.000  0.048  0.082  0.082  0.000  0.000  0.000  0.000  0.000  0.212
  4  0.000  0.048  0.082  0.082  0.000  0.000  0.000  0.000  0.000  0.212
tot  0.016  0.099  0.191  0.185  0.197  0.170  0.052  0.011  0.021  0.941
 
band  13 # energy    1.39529399 # occ.  1.00000000
 
ion      s     py     pz     px    dxy    dyz    dz2    dxz    dx2    tot
  1  0.008  0.001  0.003  0.011  0.039  0.020  0.002  0.007  0.005  0.094
  2  0.026  0.001  0.002  0.000  0.004  0.000  0.000  0.645  0.009  0.686
  3  0.002  0.010  0.022  0.062  0.000  0.000  0.000  0.000  0.000  0.096
  4  0.002  0.010  0.022  0.062  0.000  0.000  0.000  0.000  0.000  0.096
tot  0.038  0.021  0.048  0.136  0.042  0.020  0.002  0.652  0.013  0.972
 
band  14 # energy    1.78806489 # occ.  1.00000000
 
ion      s     py     pz     px    dxy    dyz    dz2    dxz    dx2    tot
  1  0.003  0.013  0.002  0.013  0.003  0.010  0.017  0.024  0.037  0.122
  2  0.017  0.001  0.004  0.013  0.184  0.081  0.001  0.003  0.042  0.347
  3  0.001  0.124  0.026  0.087  0.000  0.000  0.000  0.000  0.000  0.239
  4  0.001  0.124  0.026  0.087  0.000  0.000  0.000  0.000  0.000  0.239
tot  0.023  0.262  0.058  0.201  0.187  0.091  0.019  0.026  0.080  0.947
 
band  15 # energy    2.47833690 # occ.  1.00000000
 
ion      s     py     pz     px    dxy    dyz    dz2    dxz    dx2    tot
  1  0.005  0.007  0.000  0.000  0.020  0.009  0.002  0.007  0.155  0.206
  2  0.008  0.026  0.000  0.021  0.009  0.086  0.015  0.004  0.001  0.171
  3  0.004  0.186  0.007  0.083  0.000  0.000  0.000  0.000  0.000  0.281
  4  0.004  0.186  0.007  0.083  0.000  0.000  0.000  0.000  0.000  0.281
tot  0.022  0.407  0.015  0.188  0.028  0.095  0.017  0.011  0.156  0.939
 
band  16 # energy    2.70856121 # occ.  1.00000000
 
ion      s     py     pz     px    dxy    dyz    dz2    dxz    dx2    tot
  1  0.000  0.003  0.000  0.000  0.003  0.002  0.187  0.004  0.001  0.201
  2  0.012  0.008  0.010  0.009  0.051  0.000  0.059  0.009  0.012  0.170
  3  0.004  0.057  0.182  0.046  0.000  0.000  0.000  0.000  0.000  0.290
  4  0.004  0.057  0.182  0.046  0.000  0.000  0.000  0.000  0.000  0.290
tot  0.021  0.125  0.375  0.102  0.054  0.003  0.246  0.014  0.013  0.951
 
band  17 # energy    7.36666410 # occ.  0.00000000
 
ion      s     py     pz     px    dxy    dyz    dz2    dxz    dx2    tot
  1  0.026  0.006  0.000  0.003  0.000  0.000  0.001  0.000  0.001  0.037
  2  0.001  0.000  0.001  0.000  0.000  0.000  0.138  0.000  0.714  0.854
  3  0.007  0.024  0.002  0.005  0.000  0.000  0.000  0.000  0.000  0.038
  4  0.007  0.024  0.002  0.005  0.000  0.000  0.000  0.000  0.000  0.038
tot  0.040  0.055  0.005  0.012  0.000  0.001  0.139  0.000  0.714  0.966
 
band  18 # energy    7.75207129 # occ.  0.00000000
 
ion      s     py     pz     px    dxy    dyz    dz2    dxz    dx2    tot
  1  0.000  0.000  0.005  0.006  0.000  0.000  0.005  0.000  0.002  0.020
  2  0.000  0.000  0.000  0.001  0.000  0.000  0.693  0.000  0.128  0.822
  3  0.011  0.000  0.038  0.019  0.000  0.000  0.000  0.000  0.000  0.068
  4  0.011  0.000  0.038  0.019  0.000  0.000  0.000  0.000  0.000  0.068
tot  0.022  0.001  0.082  0.045  0.000  0.000  0.698  0.000  0.131  0.978
 
band  19 # energy   12.57210230 # occ.  0.00000000
 
ion      s     py     pz     px    dxy    dyz    dz2    dxz    dx2    tot
  1  0.076  0.010  0.044  0.024  0.000  0.003  0.000  0.002  0.010  0.169
  2  0.071  0.012  0.042  0.024  0.000  0.003  0.000  0.002  0.021  0.175
  3  0.044  0.001  0.023  0.109  0.000  0.000  0.000  0.000  0.000  0.177
  4  0.044  0.001  0.023  0.109  0.000  0.000  0.000  0.000  0.000  0.177
tot  0.235  0.024  0.132  0.267  0.000  0.007  0.000  0.004  0.031  0.699
 
band  20 # energy   13.49596869 # occ.  0.00000000
 
ion      s     py     pz     px    dxy    dyz    dz2    dxz    dx2    tot
  1  0.262  0.023  0.000  0.007  0.003  0.001  0.000  0.000  0.005  0.300
  2  0.240  0.018  0.000  0.013  0.003  0.001  0.000  0.000  0.006  0.281
  3  0.013  0.065  0.023  0.001  0.000  0.000  0.000  0.000  0.000  0.102
  4  0.013  0.065  0.023  0.001  0.000  0.000  0.000  0.000  0.000  0.102
tot  0.528  0.170  0.047  0.021  0.005  0.002  0.000  0.000  0.011  0.785
 

 k-point    6 :   -0.25000000 0.25000000 0.00000000     weight = 0.09375000

band   1 # energy  -13.10058022 # occ.  1.00000000
 
ion      s     py     pz     px    dxy    dyz    dz2    dxz    dx2    tot
  1  0.010  0.011  0.000  0.011  0.000  0.000  0.014  0.000  0.000  0.046
  2  0.009  0.011  0.000  0.011  0.000  0.000  0.006  0.000  0.000  0.037
  3  0.427  0.000  0.000  0.000  0.000  0.000  0.000  0.000  0.000  0.427
  4  0.427  0.000  0.000  0.000  0.000  0.000  0.000  0.000  0.000  0.427
tot  0.873  0.023  0.000  0.023  0.000  0.000  0.020  0.000  0.000  0.938
 
band   2 # energy  -12.82121025 # occ.  1.00000000
 
ion      s     py     pz     px    dxy    dyz    dz2    dxz    dx2    tot
  1  0.000  0.000  0.010  0.000  0.000  0.000  0.000  0.000  0.047  0.058
  2  0.000  0.000  0.010  0.000  0.000  0.000  0.000  0.000  0.020  0.030
  3  0.436  0.000  0.000  0.000  0.000  0.000  0.000  0.000  0.000  0.436
  4  0.436  0.000  0.000  0.000  0.000  0.000  0.000  0.000  0.000  0.436
tot  0.872  0.000  0.020  0.000  0.000  0.000  0.000  0.000  0.067  0.960
 
band   3 # energy   -3.11800012 # occ.  1.00000000
 
ion      s     py     pz     px    dxy    dyz    dz2    dxz    dx2    tot
  1  0.013  0.001  0.000  0.001  0.069  0.000  0.498  0.000  0.000  0.582
  2  0.047  0.001  0.000  0.001  0.037  0.000  0.001  0.000  0.000  0.087
  3  0.000  0.050  0.027  0.050  0.000  0.000  0.000  0.000  0.000  0.127
  4  0.000  0.050  0.027  0.050  0.000  0.000  0.000  0.000  0.000  0.127
tot  0.061  0.101  0.054  0.101  0.106  0.000  0.499  0.000  0.000  0.922
 
band   4 # energy   -2.31704715 # occ.  1.00000000
 
ion      s     py     pz     px    dxy    dyz    dz2    dxz    dx2    tot
  1  0.000  0.000  0.000  0.000  0.000  0.000  0.000  0.000  0.772  0.773
  2  0.000  0.000  0.000  0.000  0.000  0.000  0.000  0.000  0.023  0.024
  3  0.012  0.039  0.000  0.039  0.000  0.000  0.000  0.000  0.000  0.090
  4  0.012  0.039  0.000  0.039  0.000  0.000  0.000  0.000  0.000  0.090
tot  0.024  0.079  0.000  0.079  0.000  0.000  0.000  0.000  0.795  0.978
 
band   5 # energy   -1.90130883 # occ.  1.00000000
 
ion      s     py     pz     px    dxy    dyz    dz2    dxz    dx2    tot
  1  0.000  0.010  0.009  0.010  0.000  0.319  0.000  0.319  0.000  0.667
  2  0.000  0.010  0.009  0.010  0.000  0.000  0.000  0.000  0.000  0.029
  3  0.000  0.031  0.036  0.031  0.000  0.000  0.000  0.000  0.000  0.098
  4  0.000  0.031  0.036  0.031  0.000  0.000  0.000  0.000  0.000  0.098
tot  0.000  0.082  0.089  0.082  0.000  0.319  0.000  0.319  0.000  0.892
 
band   6 # energy   -1.71867599 # occ.  1.00000000
 
ion      s     py     pz     px    dxy    dyz    dz2    dxz    dx2    tot
  1  0.000  0.019  0.000  0.019  0.000  0.226  0.000  0.226  0.000  0.490
  2  0.000  0.019  0.000  0.019  0.000  0.056  0.000  0.056  0.000  0.149
  3  0.000  0.060  0.000  0.060  0.000  0.000  0.000  0.000  0.000  0.120
  4  0.000  0.060  0.000  0.060  0.000  0.000  0.000  0.000  0.000  0.120
tot  0.000  0.158  0.000  0.158  0.000  0.282  0.000  0.282  0.000  0.879
 
band   7 # energy   -1.58745816 # occ.  1.00000000
 
ion      s     py     pz     px    dxy    dyz    dz2    dxz    dx2    tot
  1  0.059  0.000  0.000  0.000  0.230  0.000  0.259  0.000  0.000  0.549
  2  0.004  0.000  0.000  0.000  0.068  0.000  0.032  0.000  0.000  0.105
  3  0.009  0.032  0.059  0.032  0.000  0.000  0.000  0.000  0.000  0.132
  4  0.009  0.032  0.059  0.032  0.000  0.000  0.000  0.000  0.000  0.132
tot  0.081  0.065  0.119  0.065  0.298  0.000  0.291  0.000  0.000  0.918
 
band   8 # energy   -1.28372961 # occ.  1.00000000
 
ion      s     py     pz     px    dxy    dyz    dz2    dxz    dx2    tot
  1  0.000  0.012  0.016  0.012  0.000  0.007  0.000  0.007  0.000  0.055
  2  0.000  0.012  0.016  0.012  0.000  0.237  0.000  0.237  0.000  0.514
  3  0.000  0.041  0.070  0.041  0.000  0.000  0.000  0.000  0.000  0.151
  4  0.000  0.041  0.070  0.041  0.000  0.000  0.000  0.000  0.000  0.151
tot  0.000  0.106  0.171  0.106  0.000  0.244  0.000  0.244  0.000  0.870
 
band   9 # energy   -0.09754612 # occ.  1.00000000
 
ion      s     py     pz     px    dxy    dyz    dz2    dxz    dx2    tot
  1  0.000  0.006  0.000  0.006  0.000  0.225  0.000  0.225  0.000  0.462
  2  0.000  0.006  0.000  0.006  0.000  0.192  0.000  0.192  0.000  0.396
  3  0.000  0.025  0.000  0.025  0.000  0.000  0.000  0.000  0.000  0.049
  4  0.000  0.025  0.000  0.025  0.000  0.000  0.000  0.000  0.000  0.049
tot  0.000  0.062  0.000  0.062  0.000  0.416  0.000  0.416  0.000  0.957
 
band  10 # energy    0.13058624 # occ.  1.00000000
 
ion      s     py     pz     px    dxy    dyz    dz2    dxz    dx2    tot
  1  0.028  0.000  0.000  0.000  0.659  0.000  0.000  0.000  0.000  0.688
  2  0.003  0.000  0.000  0.000  0.148  0.000  0.015  0.000  0.000  0.167
  3  0.001  0.021  0.017  0.021  0.000  0.000  0.000  0.000  0.000  0.059
  4  0.001  0.021  0.017  0.021  0.000  0.000  0.000  0.000  0.000  0.059
tot  0.034  0.041  0.034  0.041  0.807  0.000  0.015  0.000  0.000  0.974
 
band  11 # energy    1.13280033 # occ.  1.00000000
 
ion      s     py     pz     px    dxy    dyz    dz2    dxz    dx2    tot
  1  0.047  0.000  0.000  0.000  0.008  0.000  0.054  0.000  0.000  0.109
  2  0.005  0.000  0.000  0.000  0.559  0.000  0.043  0.000  0.000  0.607
  3  0.000  0.012  0.100  0.012  0.000  0.000  0.000  0.000  0.000  0.123
  4  0.000  0.012  0.100  0.012  0.000  0.000  0.000  0.000  0.000  0.123
tot  0.051  0.024  0.200  0.024  0.566  0.000  0.097  0.000  0.000  0.962
 
band  12 # energy    1.15997665 # occ.  1.00000000
 
ion      s     py     pz     px    dxy    dyz    dz2    dxz    dx2    tot
  1  0.000  0.019  0.004  0.019  0.000  0.128  0.000  0.128  0.000  0.299
  2  0.000  0.019  0.004  0.019  0.000  0.088  0.000  0.088  0.000  0.218
  3  0.000  0.092  0.027  0.092  0.000  0.000  0.000  0.000  0.000  0.211
  4  0.000  0.092  0.027  0.092  0.000  0.000  0.000  0.000  0.000  0.211
tot  0.000  0.221  0.063  0.221  0.000  0.217  0.000  0.217  0.000  0.939
 
band  13 # energy    1.32478140 # occ.  1.00000000
 
ion      s     py     pz     px    dxy    dyz    dz2    dxz    dx2    tot
  1  0.000  0.017  0.000  0.017  0.000  0.037  0.000  0.037  0.000  0.108
  2  0.000  0.016  0.000  0.016  0.000  0.239  0.000  0.239  0.000  0.512
  3  0.000  0.083  0.000  0.083  0.000  0.000  0.000  0.000  0.000  0.166
  4  0.000  0.083  0.000  0.083  0.000  0.000  0.000  0.000  0.000  0.166
tot  0.000  0.199  0.000  0.199  0.000  0.277  0.000  0.277  0.000  0.951
 
band  14 # energy    1.80622256 # occ.  1.00000000
 
ion      s     py     pz     px    dxy    dyz    dz2    dxz    dx2    tot
  1  0.000  0.000  0.000  0.000  0.028  0.000  0.192  0.000  0.000  0.221
  2  0.107  0.000  0.000  0.000  0.180  0.000  0.013  0.000  0.000  0.301
  3  0.007  0.031  0.136  0.031  0.000  0.000  0.000  0.000  0.000  0.205
  4  0.007  0.031  0.136  0.031  0.000  0.000  0.000  0.000  0.000  0.205
tot  0.121  0.063  0.271  0.063  0.208  0.000  0.205  0.000  0.000  0.931
 
band  15 # energy    2.26153314 # occ.  1.00000000
 
ion      s     py     pz     px    dxy    dyz    dz2    dxz    dx2    tot
  1  0.000  0.001  0.032  0.001  0.000  0.037  0.000  0.037  0.000  0.107
  2  0.000  0.001  0.031  0.001  0.000  0.163  0.000  0.163  0.000  0.358
  3  0.000  0.004  0.239  0.004  0.000  0.000  0.000  0.000  0.000  0.247
  4  0.000  0.004  0.239  0.004  0.000  0.000  0.000  0.000  0.000  0.247
tot  0.000  0.009  0.541  0.009  0.000  0.200  0.000  0.200  0.000  0.958
 
band  16 # energy    2.68593103 # occ.  1.00000000
 
ion      s     py     pz     px    dxy    dyz    dz2    dxz    dx2    tot
  1  0.000  0.001  0.000  0.001  0.000  0.000  0.000  0.000  0.214  0.216
  2  0.000  0.001  0.000  0.001  0.000  0.000  0.000  0.000  0.173  0.175
  3  0.006  0.139  0.000  0.139  0.000  0.000  0.000  0.000  0.000  0.285
  4  0.006  0.139  0.000  0.139  0.000  0.000  0.000  0.000  0.000  0.285
tot  0.012  0.281  0.000  0.281  0.000  0.000  0.000  0.000  0.387  0.961
 
band  17 # energy    7.21294725 # occ.  0.00000000
 
ion      s     py     pz     px    dxy    dyz    dz2    dxz    dx2    tot
  1  0.048  0.000  0.000  0.000  0.000  0.000  0.002  0.000  0.000  0.050
  2  0.002  0.000  0.000  0.000  0.000  0.000  0.863  0.000  0.000  0.865
  3  0.007  0.000  0.016  0.000  0.000  0.000  0.000  0.000  0.000  0.024
  4  0.007  0.000  0.016  0.000  0.000  0.000  0.000  0.000  0.000  0.024
tot  0.063  0.001  0.033  0.001  0.000  0.000  0.866  0.000  0.000  0.963
 
band  18 # energy    7.93899959 # occ.  0.00000000
 
ion      s     py     pz     px    dxy    dyz    dz2    dxz    dx2    tot
  1  0.000  0.000  0.000  0.000  0.000  0.000  0.000  0.000  0.016  0.016
  2  0.000  0.000  0.000  0.000  0.000  0.000  0.000  0.000  0.796  0.796
  3  0.007  0.041  0.000  0.041  0.000  0.000  0.000  0.000  0.000  0.089
  4  0.007  0.041  0.000  0.041  0.000  0.000  0.000  0.000  0.000  0.089
tot  0.014  0.082  0.000  0.082  0.000  0.000  0.000  0.000  0.812  0.990
 
band  19 # energy   12.48769651 # occ.  0.00000000
 
ion      s     py     pz     px    dxy    dyz    dz2    dxz    dx2    tot
  1  0.048  0.047  0.000  0.047  0.003  0.000  0.008  0.000  0.000  0.153
  2  0.059  0.044  0.000  0.044  0.003  0.000  0.016  0.000  0.000  0.167
  3  0.050  0.069  0.000  0.069  0.000  0.000  0.000  0.000  0.000  0.188
  4  0.050  0.069  0.000  0.069  0.000  0.000  0.000  0.000  0.000  0.188
tot  0.207  0.229  0.000  0.229  0.007  0.000  0.023  0.000  0.000  0.695
 
band  20 # energy   13.86628669 # occ.  0.00000000
 
ion      s     py     pz     px    dxy    dyz    dz2    dxz    dx2    tot
  1  0.298  0.000  0.000  0.000  0.000  0.000  0.011  0.000  0.000  0.309
  2  0.279  0.000  0.000  0.000  0.000  0.000  0.015  0.000  0.000  0.294
  3  0.000  0.000  0.115  0.000  0.000  0.000  0.000  0.000  0.000  0.115
  4  0.000  0.000  0.115  0.000  0.000  0.000  0.000  0.000  0.000  0.115
tot  0.576  0.000  0.230  0.000  0.000  0.000  0.026  0.000  0.000  0.833
 

 k-point    7 :    0.50000000 0.50000000 0.00000000     weight = 0.04687500

band   1 # energy  -12.96460315 # occ.  1.00000000
 
ion      s     py     pz     px    dxy    dyz    dz2    dxz    dx2    tot
  1  0.008  0.000  0.000  0.000  0.000  0.000  0.062  0.000  0.000  0.070
  2  0.007  0.000  0.000  0.000  0.000  0.000  0.027  0.000  0.000  0.034
  3  0.430  0.000  0.000  0.000  0.000  0.000  0.000  0.000  0.000  0.430
  4  0.430  0.000  0.000  0.000  0.000  0.000  0.000  0.000  0.000  0.430
tot  0.875  0.000  0.000  0.000  0.000  0.000  0.089  0.000  0.000  0.964
 
band   2 # energy  -12.93127812 # occ.  1.00000000
 
ion      s     py     pz     px    dxy    dyz    dz2    dxz    dx2    tot
  1  0.000  0.011  0.011  0.011  0.000  0.000  0.000  0.000  0.000  0.034
  2  0.000  0.011  0.011  0.011  0.000  0.000  0.000  0.000  0.000  0.033
  3  0.435  0.000  0.000  0.000  0.000  0.000  0.000  0.000  0.000  0.435
  4  0.435  0.000  0.000  0.000  0.000  0.000  0.000  0.000  0.000  0.435
tot  0.871  0.022  0.022  0.022  0.000  0.000  0.000  0.000  0.000  0.937
 
band   3 # energy   -3.57914937 # occ.  1.00000000
 
ion      s     py     pz     px    dxy    dyz    dz2    dxz    dx2    tot
  1  0.080  0.000  0.000  0.000  0.077  0.067  0.000  0.067  0.000  0.292
  2  0.077  0.000  0.000  0.000  0.034  0.040  0.000  0.040  0.000  0.192
  3  0.000  0.057  0.057  0.057  0.000  0.000  0.000  0.000  0.000  0.172
  4  0.000  0.057  0.057  0.057  0.000  0.000  0.000  0.000  0.000  0.172
tot  0.157  0.114  0.115  0.114  0.112  0.108  0.000  0.108  0.000  0.827
 
band   4 # energy   -2.66005814 # occ.  1.00000000
 
ion      s     py     pz     px    dxy    dyz    dz2    dxz    dx2    tot
  1  0.000  0.000  0.000  0.000  0.000  0.015  0.000  0.015  0.768  0.798
  2  0.000  0.000  0.000  0.000  0.000  0.007  0.000  0.007  0.012  0.026
  3  0.000  0.038  0.000  0.038  0.000  0.000  0.000  0.000  0.000  0.075
  4  0.000  0.038  0.000  0.038  0.000  0.000  0.000  0.000  0.000  0.075
tot  0.000  0.075  0.000  0.075  0.000  0.022  0.000  0.022  0.781  0.975
 
band   5 # energy   -2.36646926 # occ.  1.00000000
 
ion      s     py     pz     px    dxy    dyz    dz2    dxz    dx2    tot
  1  0.000  0.000  0.000  0.000  0.045  0.008  0.674  0.008  0.000  0.734
  2  0.000  0.000  0.000  0.000  0.007  0.003  0.029  0.003  0.000  0.042
  3  0.013  0.014  0.057  0.014  0.000  0.000  0.000  0.000  0.000  0.098
  4  0.013  0.014  0.057  0.014  0.000  0.000  0.000  0.000  0.000  0.098
tot  0.027  0.028  0.114  0.028  0.051  0.011  0.703  0.011  0.000  0.972
 
band   6 # energy   -1.42486369 # occ.  1.00000000
 
ion      s     py     pz     px    dxy    dyz    dz2    dxz    dx2    tot
  1  0.000  0.000  0.110  0.000  0.000  0.000  0.000  0.000  0.000  0.110
  2  0.000  0.000  0.107  0.000  0.000  0.000  0.000  0.000  0.000  0.107
  3  0.000  0.000  0.294  0.000  0.000  0.000  0.000  0.000  0.000  0.294
  4  0.000  0.000  0.294  0.000  0.000  0.000  0.000  0.000  0.000  0.294
tot  0.000  0.000  0.805  0.000  0.000  0.000  0.000  0.000  0.000  0.805
 
band   7 # energy   -1.42141283 # occ.  1.00000000
 
ion      s     py     pz     px    dxy    dyz    dz2    dxz    dx2    tot
  1  0.001  0.000  0.000  0.000  0.644  0.007  0.028  0.007  0.000  0.687
  2  0.001  0.000  0.000  0.000  0.220  0.002  0.000  0.002  0.000  0.225
  3  0.001  0.002  0.000  0.002  0.000  0.000  0.000  0.000  0.000  0.004
  4  0.001  0.002  0.000  0.002  0.000  0.000  0.000  0.000  0.000  0.004
tot  0.004  0.003  0.000  0.003  0.864  0.009  0.029  0.009  0.000  0.920
 
band   8 # energy   -0.48806370 # occ.  1.00000000
 
ion      s     py     pz     px    dxy    dyz    dz2    dxz    dx2    tot
  1  0.000  0.000  0.000  0.000  0.000  0.441  0.000  0.441  0.068  0.950
  2  0.000  0.000  0.000  0.000  0.000  0.013  0.000  0.013  0.002  0.028
  3  0.000  0.001  0.000  0.001  0.000  0.000  0.000  0.000  0.000  0.003
  4  0.000  0.001  0.000  0.001  0.000  0.000  0.000  0.000  0.000  0.003
tot  0.000  0.003  0.000  0.003  0.000  0.454  0.000  0.454  0.070  0.984
 
band   9 # energy   -0.18853888 # occ.  1.00000000
 
ion      s     py     pz     px    dxy    dyz    dz2    dxz    dx2    tot
  1  0.004  0.000  0.000  0.000  0.032  0.298  0.061  0.298  0.000  0.692
  2  0.003  0.000  0.000  0.000  0.260  0.001  0.001  0.001  0.000  0.265
  3  0.001  0.005  0.000  0.005  0.000  0.000  0.000  0.000  0.000  0.011
  4  0.001  0.005  0.000  0.005  0.000  0.000  0.000  0.000  0.000  0.011
tot  0.009  0.009  0.000  0.009  0.292  0.298  0.062  0.298  0.000  0.979
 
band  10 # energy    0.46056776 # occ.  1.00000000
 
ion      s     py     pz     px    dxy    dyz    dz2    dxz    dx2    tot
  1  0.005  0.000  0.000  0.000  0.080  0.091  0.034  0.091  0.000  0.300
  2  0.005  0.000  0.000  0.000  0.274  0.183  0.002  0.183  0.000  0.647
  3  0.001  0.001  0.014  0.001  0.000  0.000  0.000  0.000  0.000  0.017
  4  0.001  0.001  0.014  0.001  0.000  0.000  0.000  0.000  0.000  0.017
tot  0.011  0.003  0.028  0.003  0.354  0.274  0.036  0.274  0.000  0.982
 
band  11 # energy    0.73469526 # occ.  1.00000000
 
ion      s     py     pz     px    dxy    dyz    dz2    dxz    dx2    tot
  1  0.000  0.000  0.000  0.000  0.000  0.027  0.000  0.027  0.028  0.082
  2  0.000  0.000  0.000  0.000  0.000  0.441  0.000  0.441  0.005  0.888
  3  0.000  0.005  0.000  0.005  0.000  0.000  0.000  0.000  0.000  0.009
  4  0.000  0.005  0.000  0.005  0.000  0.000  0.000  0.000  0.000  0.009
tot  0.000  0.009  0.000  0.009  0.000  0.468  0.000  0.468  0.034  0.988
 
band  12 # energy    1.36993897 # occ.  1.00000000
 
ion      s     py     pz     px    dxy    dyz    dz2    dxz    dx2    tot
  1  0.000  0.028  0.000  0.028  0.000  0.000  0.000  0.000  0.000  0.057
  2  0.000  0.028  0.000  0.028  0.000  0.000  0.000  0.000  0.000  0.055
  3  0.000  0.197  0.000  0.197  0.000  0.000  0.000  0.000  0.000  0.394
  4  0.000  0.197  0.000  0.197  0.000  0.000  0.000  0.000  0.000  0.394
tot  0.000  0.451  0.000  0.451  0.000  0.000  0.000  0.000  0.000  0.901
 
band  13 # energy    1.37230662 # occ.  1.00000000
 
ion      s     py     pz     px    dxy    dyz    dz2    dxz    dx2    tot
  1  0.000  0.028  0.000  0.028  0.000  0.000  0.000  0.000  0.000  0.057
  2  0.000  0.028  0.000  0.028  0.000  0.000  0.000  0.000  0.000  0.056
  3  0.000  0.197  0.000  0.197  0.000  0.000  0.000  0.000  0.000  0.394
  4  0.000  0.197  0.000  0.197  0.000  0.000  0.000  0.000  0.000  0.394
tot  0.000  0.451  0.000  0.451  0.000  0.000  0.000  0.000  0.000  0.901
 
band  14 # energy    1.53056911 # occ.  1.00000000
 
ion      s     py     pz     px    dxy    dyz    dz2    dxz    dx2    tot
  1  0.034  0.000  0.000  0.000  0.058  0.024  0.000  0.024  0.000  0.140
  2  0.031  0.000  0.000  0.000  0.120  0.258  0.000  0.258  0.000  0.668
  3  0.000  0.030  0.025  0.030  0.000  0.000  0.000  0.000  0.000  0.085
  4  0.000  0.030  0.025  0.030  0.000  0.000  0.000  0.000  0.000  0.085
tot  0.065  0.060  0.050  0.060  0.178  0.282  0.000  0.282  0.000  0.978
 
band  15 # energy    2.83073899 # occ.  1.00000000
 
ion      s     py     pz     px    dxy    dyz    dz2    dxz    dx2    tot
  1  0.000  0.000  0.000  0.000  0.000  0.012  0.000  0.012  0.146  0.171
  2  0.000  0.000  0.000  0.000  0.000  0.034  0.000  0.034  0.202  0.271
  3  0.000  0.133  0.000  0.133  0.000  0.000  0.000  0.000  0.000  0.266
  4  0.000  0.133  0.000  0.133  0.000  0.000  0.000  0.000  0.000  0.266
tot  0.000  0.266  0.000  0.266  0.000  0.047  0.000  0.047  0.348  0.973
 
band  16 # energy    2.98513168 # occ.  1.00000000
 
ion      s     py     pz     px    dxy    dyz    dz2    dxz    dx2    tot
  1  0.000  0.000  0.000  0.000  0.020  0.004  0.181  0.004  0.000  0.209
  2  0.000  0.000  0.000  0.000  0.031  0.010  0.166  0.010  0.000  0.216
  3  0.007  0.045  0.180  0.045  0.000  0.000  0.000  0.000  0.000  0.276
  4  0.007  0.045  0.180  0.045  0.000  0.000  0.000  0.000  0.000  0.276
tot  0.014  0.089  0.359  0.089  0.051  0.014  0.347  0.014  0.000  0.977
 
band  17 # energy    7.80272315 # occ.  0.00000000
 
ion      s     py     pz     px    dxy    dyz    dz2    dxz    dx2    tot
  1  0.000  0.000  0.000  0.000  0.000  0.000  0.000  0.000  0.025  0.025
  2  0.000  0.000  0.000  0.000  0.000  0.001  0.000  0.001  0.782  0.784
  3  0.000  0.045  0.000  0.045  0.000  0.000  0.000  0.000  0.000  0.090
  4  0.000  0.045  0.000  0.045  0.000  0.000  0.000  0.000  0.000  0.090
tot  0.000  0.090  0.000  0.090  0.000  0.001  0.000  0.001  0.807  0.988
 
band  18 # energy    7.97902112 # occ.  0.00000000
 
ion      s     py     pz     px    dxy    dyz    dz2    dxz    dx2    tot
  1  0.001  0.000  0.000  0.000  0.000  0.000  0.014  0.000  0.000  0.016
  2  0.001  0.000  0.000  0.000  0.000  0.000  0.787  0.000  0.000  0.788
  3  0.010  0.014  0.055  0.014  0.000  0.000  0.000  0.000  0.000  0.093
  4  0.010  0.014  0.055  0.014  0.000  0.000  0.000  0.000  0.000  0.093
tot  0.022  0.027  0.110  0.027  0.001  0.000  0.801  0.000  0.000  0.990
 
band  19 # energy   10.88872235 # occ.  0.00000000
 
ion      s     py     pz     px    dxy    dyz    dz2    dxz    dx2    tot
  1  0.000  0.060  0.059  0.060  0.000  0.000  0.000  0.000  0.000  0.179
  2  0.000  0.058  0.058  0.058  0.000  0.000  0.000  0.000  0.000  0.173
  3  0.065  0.000  0.000  0.000  0.000  0.000  0.000  0.000  0.000  0.065
  4  0.065  0.000  0.000  0.000  0.000  0.000  0.000  0.000  0.000  0.065
tot  0.131  0.117  0.117  0.117  0.000  0.000  0.000  0.000  0.000  0.482
 
band  20 # energy   11.40217144 # occ.  0.00000000
 
ion      s     py     pz     px    dxy    dyz    dz2    dxz    dx2    tot
  1  0.371  0.000  0.000  0.000  0.000  0.000  0.002  0.000  0.000  0.372
  2  0.339  0.000  0.000  0.000  0.000  0.000  0.008  0.000  0.000  0.347
  3  0.023  0.000  0.000  0.000  0.000  0.000  0.000  0.000  0.000  0.023
  4  0.023  0.000  0.000  0.000  0.000  0.000  0.000  0.000  0.000  0.023
tot  0.755  0.001  0.000  0.001  0.000  0.000  0.009  0.000  0.000  0.766
 

 k-point    8 :    0.25000000 0.25000000 0.25000000     weight = 0.03125000

band   1 # energy  -14.27755333 # occ.  1.00000000
 
ion      s     py     pz     px    dxy    dyz    dz2    dxz    dx2    tot
  1  0.059  0.001  0.001  0.001  0.000  0.000  0.000  0.000  0.000  0.063
  2  0.057  0.001  0.001  0.001  0.000  0.000  0.000  0.000  0.000  0.061
  3  0.389  0.000  0.000  0.000  0.000  0.000  0.000  0.000  0.000  0.389
  4  0.389  0.000  0.000  0.000  0.000  0.000  0.000  0.000  0.000  0.389
tot  0.893  0.003  0.003  0.003  0.000  0.000  0.000  0.000  0.000  0.902
 
band   2 # energy  -13.19259661 # occ.  1.00000000
 
ion      s     py     pz     px    dxy    dyz    dz2    dxz    dx2    tot
  1  0.013  0.009  0.009  0.009  0.000  0.000  0.000  0.000  0.000  0.040
  2  0.013  0.009  0.009  0.009  0.000  0.000  0.000  0.000  0.000  0.040
  3  0.424  0.000  0.000  0.000  0.000  0.000  0.000  0.000  0.000  0.425
  4  0.424  0.000  0.000  0.000  0.000  0.000  0.000  0.000  0.000  0.425
tot  0.874  0.019  0.019  0.019  0.000  0.000  0.000  0.000  0.000  0.930
 
band   3 # energy   -3.04858563 # occ.  1.00000000
 
ion      s     py     pz     px    dxy    dyz    dz2    dxz    dx2    tot
  1  0.064  0.001  0.001  0.001  0.090  0.090  0.000  0.090  0.000  0.335
  2  0.061  0.001  0.001  0.001  0.038  0.038  0.000  0.038  0.000  0.177
  3  0.006  0.053  0.053  0.053  0.000  0.000  0.000  0.000  0.000  0.166
  4  0.006  0.053  0.053  0.053  0.000  0.000  0.000  0.000  0.000  0.166
tot  0.137  0.108  0.108  0.108  0.128  0.128  0.000  0.128  0.000  0.845
 
band   4 # energy   -2.71725176 # occ.  1.00000000
 
ion      s     py     pz     px    dxy    dyz    dz2    dxz    dx2    tot
  1  0.000  0.000  0.000  0.000  0.002  0.018  0.094  0.010  0.703  0.828
  2  0.000  0.000  0.000  0.000  0.000  0.004  0.001  0.002  0.004  0.011
  3  0.000  0.022  0.005  0.040  0.000  0.000  0.000  0.000  0.000  0.067
  4  0.000  0.022  0.005  0.040  0.000  0.000  0.000  0.000  0.000  0.067
tot  0.000  0.044  0.011  0.079  0.003  0.021  0.095  0.012  0.707  0.973
 
band   5 # energy   -2.71725176 # occ.  1.00000000
 
ion      s     py     pz     px    dxy    dyz    dz2    dxz    dx2    tot
  1  0.000  0.000  0.000  0.000  0.018  0.002  0.703  0.010  0.094  0.828
  2  0.000  0.000  0.000  0.000  0.003  0.000  0.004  0.002  0.001  0.011
  3  0.000  0.023  0.039  0.005  0.000  0.000  0.000  0.000  0.000  0.067
  4  0.000  0.023  0.039  0.005  0.000  0.000  0.000  0.000  0.000  0.067
tot  0.000  0.045  0.079  0.010  0.021  0.003  0.707  0.012  0.095  0.973
 
band   6 # energy   -0.90584758 # occ.  1.00000000
 
ion      s     py     pz     px    dxy    dyz    dz2    dxz    dx2    tot
  1  0.000  0.000  0.000  0.000  0.212  0.178  0.014  0.512  0.026  0.942
  2  0.000  0.000  0.000  0.000  0.005  0.004  0.000  0.013  0.000  0.023
  3  0.000  0.001  0.000  0.000  0.000  0.000  0.000  0.000  0.000  0.001
  4  0.000  0.001  0.000  0.000  0.000  0.000  0.000  0.000  0.000  0.001
tot  0.000  0.001  0.001  0.000  0.217  0.182  0.014  0.525  0.026  0.967
 
band   7 # energy   -0.90584758 # occ.  1.00000000
 
ion      s     py     pz     px    dxy    dyz    dz2    dxz    dx2    tot
  1  0.000  0.000  0.000  0.000  0.389  0.423  0.026  0.089  0.014  0.942
  2  0.000  0.000  0.000  0.000  0.010  0.011  0.000  0.002  0.000  0.023
  3  0.000  0.000  0.000  0.000  0.000  0.000  0.000  0.000  0.000  0.001
  4  0.000  0.000  0.000  0.000  0.000  0.000  0.000  0.000  0.000  0.001
tot  0.000  0.000  0.001  0.001  0.399  0.434  0.026  0.091  0.014  0.967
 
band   8 # energy   -0.85267290 # occ.  1.00000000
 
ion      s     py     pz     px    dxy    dyz    dz2    dxz    dx2    tot
  1  0.001  0.001  0.001  0.001  0.162  0.162  0.000  0.162  0.000  0.490
  2  0.015  0.000  0.000  0.000  0.114  0.114  0.000  0.114  0.000  0.358
  3  0.002  0.015  0.015  0.015  0.000  0.000  0.000  0.000  0.000  0.045
  4  0.002  0.015  0.015  0.015  0.000  0.000  0.000  0.000  0.000  0.045
tot  0.019  0.031  0.031  0.031  0.276  0.276  0.000  0.276  0.000  0.938
 
band   9 # energy    0.12690398 # occ.  1.00000000
 
ion      s     py     pz     px    dxy    dyz    dz2    dxz    dx2    tot
  1  0.000  0.001  0.000  0.000  0.004  0.001  0.012  0.008  0.018  0.045
  2  0.000  0.000  0.000  0.000  0.228  0.081  0.006  0.531  0.009  0.855
  3  0.000  0.019  0.008  0.003  0.000  0.000  0.000  0.000  0.000  0.031
  4  0.000  0.019  0.008  0.003  0.000  0.000  0.000  0.000  0.000  0.031
tot  0.000  0.040  0.017  0.006  0.232  0.082  0.018  0.540  0.027  0.961
 
band  10 # energy    0.12690398 # occ.  1.00000000
 
ion      s     py     pz     px    dxy    dyz    dz2    dxz    dx2    tot
  1  0.000  0.000  0.001  0.001  0.005  0.007  0.018  0.000  0.012  0.045
  2  0.000  0.000  0.000  0.000  0.332  0.479  0.009  0.029  0.006  0.855
  3  0.000  0.001  0.012  0.017  0.000  0.000  0.000  0.000  0.000  0.031
  4  0.000  0.001  0.012  0.017  0.000  0.000  0.000  0.000  0.000  0.031
tot  0.000  0.002  0.025  0.036  0.337  0.487  0.027  0.029  0.018  0.961
 
band  11 # energy    1.33935411 # occ.  1.00000000
 
ion      s     py     pz     px    dxy    dyz    dz2    dxz    dx2    tot
  1  0.065  0.000  0.000  0.000  0.071  0.071  0.000  0.071  0.000  0.278
  2  0.019  0.000  0.000  0.000  0.125  0.125  0.000  0.125  0.000  0.395
  3  0.006  0.045  0.045  0.045  0.000  0.000  0.000  0.000  0.000  0.140
  4  0.006  0.045  0.045  0.045  0.000  0.000  0.000  0.000  0.000  0.140
tot  0.096  0.090  0.090  0.090  0.196  0.196  0.000  0.196  0.000  0.954
 
band  12 # energy    2.03487953 # occ.  1.00000000
 
ion      s     py     pz     px    dxy    dyz    dz2    dxz    dx2    tot
  1  0.021  0.003  0.003  0.003  0.003  0.003  0.000  0.003  0.000  0.039
  2  0.054  0.003  0.003  0.003  0.047  0.047  0.000  0.047  0.000  0.205
  3  0.018  0.105  0.105  0.105  0.000  0.000  0.000  0.000  0.000  0.332
  4  0.018  0.105  0.105  0.105  0.000  0.000  0.000  0.000  0.000  0.332
tot  0.110  0.215  0.215  0.215  0.050  0.050  0.000  0.050  0.000  0.907
 
band  13 # energy    2.26711309 # occ.  1.00000000
 
ion      s     py     pz     px    dxy    dyz    dz2    dxz    dx2    tot
  1  0.000  0.004  0.002  0.005  0.001  0.003  0.004  0.002  0.011  0.033
  2  0.000  0.001  0.001  0.001  0.018  0.046  0.045  0.033  0.118  0.262
  3  0.000  0.112  0.060  0.156  0.000  0.000  0.000  0.000  0.000  0.328
  4  0.000  0.112  0.060  0.156  0.000  0.000  0.000  0.000  0.000  0.328
tot  0.000  0.228  0.123  0.318  0.019  0.049  0.049  0.035  0.128  0.950
 
band  14 # energy    2.26711309 # occ.  1.00000000
 
ion      s     py     pz     px    dxy    dyz    dz2    dxz    dx2    tot
  1  0.000  0.004  0.005  0.002  0.003  0.001  0.011  0.002  0.004  0.033
  2  0.000  0.001  0.001  0.001  0.047  0.019  0.118  0.032  0.045  0.262
  3  0.000  0.107  0.158  0.063  0.000  0.000  0.000  0.000  0.000  0.328
  4  0.000  0.107  0.158  0.063  0.000  0.000  0.000  0.000  0.000  0.328
tot  0.000  0.218  0.323  0.128  0.050  0.020  0.128  0.034  0.049  0.950
 
band  15 # energy    3.28931300 # occ.  1.00000000
 
ion      s     py     pz     px    dxy    dyz    dz2    dxz    dx2    tot
  1  0.000  0.000  0.001  0.002  0.007  0.012  0.064  0.002  0.063  0.153
  2  0.000  0.002  0.006  0.010  0.002  0.003  0.020  0.000  0.019  0.061
  3  0.000  0.034  0.125  0.210  0.000  0.000  0.000  0.000  0.000  0.369
  4  0.000  0.034  0.125  0.210  0.000  0.000  0.000  0.000  0.000  0.369
tot  0.000  0.071  0.257  0.432  0.009  0.015  0.084  0.002  0.082  0.952
 
band  16 # energy    3.28931300 # occ.  1.00000000
 
ion      s     py     pz     px    dxy    dyz    dz2    dxz    dx2    tot
  1  0.000  0.003  0.001  0.000  0.007  0.002  0.063  0.013  0.064  0.153
  2  0.000  0.010  0.006  0.002  0.002  0.000  0.019  0.003  0.020  0.061
  3  0.000  0.212  0.121  0.036  0.000  0.000  0.000  0.000  0.000  0.369
  4  0.000  0.212  0.121  0.036  0.000  0.000  0.000  0.000  0.000  0.369
tot  0.000  0.435  0.249  0.074  0.009  0.003  0.082  0.015  0.084  0.952
 
band  17 # energy    7.55350476 # occ.  0.00000000
 
ion      s     py     pz     px    dxy    dyz    dz2    dxz    dx2    tot
  1  0.000  0.003  0.001  0.002  0.000  0.000  0.006  0.000  0.012  0.026
  2  0.000  0.000  0.000  0.000  0.000  0.000  0.263  0.001  0.505  0.769
  3  0.000  0.038  0.021  0.032  0.000  0.000  0.000  0.000  0.000  0.090
  4  0.000  0.038  0.021  0.032  0.000  0.000  0.000  0.000  0.000  0.090
tot  0.000  0.079  0.043  0.066  0.000  0.001  0.269  0.001  0.517  0.976
 
band  18 # energy    7.55350476 # occ.  0.00000000
 
ion      s     py     pz     px    dxy    dyz    dz2    dxz    dx2    tot
  1  0.000  0.002  0.003  0.002  0.000  0.000  0.012  0.000  0.006  0.026
  2  0.000  0.000  0.000  0.000  0.001  0.000  0.505  0.000  0.263  0.769
  3  0.000  0.022  0.040  0.028  0.000  0.000  0.000  0.000  0.000  0.090
  4  0.000  0.022  0.040  0.028  0.000  0.000  0.000  0.000  0.000  0.090
tot  0.000  0.046  0.082  0.059  0.001  0.001  0.517  0.000  0.269  0.976
 
band  19 # energy    8.07450949 # occ.  0.00000000
 
ion      s     py     pz     px    dxy    dyz    dz2    dxz    dx2    tot
  1  0.167  0.005  0.005  0.005  0.000  0.000  0.000  0.000  0.000  0.183
  2  0.156  0.006  0.006  0.006  0.000  0.000  0.000  0.000  0.000  0.174
  3  0.117  0.024  0.024  0.024  0.000  0.000  0.000  0.000  0.000  0.188
  4  0.117  0.024  0.024  0.024  0.000  0.000  0.000  0.000  0.000  0.188
tot  0.556  0.059  0.059  0.059  0.000  0.000  0.000  0.000  0.000  0.734
 
band  20 # energy   10.74761620 # occ.  0.00000000
 
ion      s     py     pz     px    dxy    dyz    dz2    dxz    dx2    tot
  1  0.035  0.046  0.046  0.046  0.001  0.001  0.000  0.001  0.000  0.177
  2  0.039  0.043  0.043  0.043  0.002  0.002  0.000  0.002  0.000  0.173
  3  0.072  0.015  0.015  0.015  0.000  0.000  0.000  0.000  0.000  0.118
  4  0.072  0.015  0.015  0.015  0.000  0.000  0.000  0.000  0.000  0.118
tot  0.218  0.119  0.119  0.119  0.003  0.003  0.000  0.003  0.000  0.586
 

 k-point    9 :    0.50000000 0.25000000 0.25000000     weight = 0.09375000

band   1 # energy  -13.65044244 # occ.  1.00000000
 
ion      s     py     pz     px    dxy    dyz    dz2    dxz    dx2    tot
  1  0.031  0.000  0.000  0.012  0.000  0.000  0.003  0.000  0.010  0.056
  2  0.035  0.000  0.000  0.011  0.000  0.000  0.001  0.000  0.003  0.051
  3  0.407  0.000  0.000  0.001  0.000  0.000  0.000  0.000  0.000  0.408
  4  0.407  0.000  0.000  0.001  0.000  0.000  0.000  0.000  0.000  0.408
tot  0.880  0.000  0.000  0.025  0.000  0.000  0.004  0.000  0.013  0.922
 
band   2 # energy  -13.09654852 # occ.  1.00000000
 
ion      s     py     pz     px    dxy    dyz    dz2    dxz    dx2    tot
  1  0.014  0.011  0.011  0.000  0.000  0.000  0.003  0.000  0.009  0.047
  2  0.006  0.011  0.011  0.000  0.000  0.000  0.002  0.000  0.005  0.035
  3  0.427  0.000  0.000  0.000  0.000  0.000  0.000  0.000  0.000  0.427
  4  0.427  0.000  0.000  0.000  0.000  0.000  0.000  0.000  0.000  0.427
tot  0.873  0.023  0.023  0.000  0.000  0.000  0.005  0.000  0.014  0.938
 
band   3 # energy   -3.21599910 # occ.  1.00000000
 
ion      s     py     pz     px    dxy    dyz    dz2    dxz    dx2    tot
  1  0.006  0.001  0.001  0.002  0.000  0.061  0.129  0.000  0.386  0.586
  2  0.052  0.001  0.001  0.002  0.000  0.026  0.000  0.000  0.000  0.081
  3  0.000  0.042  0.042  0.043  0.000  0.000  0.000  0.000  0.000  0.127
  4  0.000  0.042  0.042  0.043  0.000  0.000  0.000  0.000  0.000  0.127
tot  0.058  0.085  0.085  0.090  0.000  0.087  0.129  0.000  0.386  0.920
 
band   4 # energy   -2.62076281 # occ.  1.00000000
 
ion      s     py     pz     px    dxy    dyz    dz2    dxz    dx2    tot
  1  0.000  0.000  0.000  0.000  0.000  0.000  0.621  0.000  0.207  0.829
  2  0.000  0.000  0.000  0.000  0.000  0.000  0.007  0.000  0.002  0.010
  3  0.000  0.034  0.034  0.000  0.000  0.000  0.000  0.000  0.000  0.069
  4  0.000  0.034  0.034  0.000  0.000  0.000  0.000  0.000  0.000  0.069
tot  0.000  0.069  0.069  0.000  0.000  0.000  0.628  0.000  0.209  0.976
 
band   5 # energy   -1.82087890 # occ.  1.00000000
 
ion      s     py     pz     px    dxy    dyz    dz2    dxz    dx2    tot
  1  0.064  0.000  0.000  0.003  0.000  0.335  0.038  0.000  0.115  0.556
  2  0.003  0.000  0.000  0.003  0.000  0.024  0.009  0.000  0.027  0.065
  3  0.009  0.034  0.034  0.063  0.000  0.000  0.000  0.000  0.000  0.139
  4  0.009  0.034  0.034  0.063  0.000  0.000  0.000  0.000  0.000  0.139
tot  0.084  0.068  0.068  0.131  0.000  0.359  0.047  0.000  0.142  0.899
 
band   6 # energy   -1.66924894 # occ.  1.00000000
 
ion      s     py     pz     px    dxy    dyz    dz2    dxz    dx2    tot
  1  0.000  0.000  0.000  0.020  0.293  0.000  0.000  0.293  0.000  0.607
  2  0.000  0.000  0.000  0.020  0.051  0.000  0.000  0.051  0.000  0.122
  3  0.000  0.001  0.001  0.086  0.000  0.000  0.000  0.000  0.000  0.088
  4  0.000  0.001  0.001  0.086  0.000  0.000  0.000  0.000  0.000  0.088
tot  0.000  0.003  0.003  0.212  0.344  0.000  0.000  0.344  0.000  0.906
 
band   7 # energy   -0.93654296 # occ.  1.00000000
 
ion      s     py     pz     px    dxy    dyz    dz2    dxz    dx2    tot
  1  0.022  0.000  0.000  0.001  0.000  0.401  0.001  0.000  0.002  0.427
  2  0.003  0.000  0.000  0.000  0.000  0.385  0.003  0.000  0.009  0.400
  3  0.002  0.016  0.016  0.013  0.000  0.000  0.000  0.000  0.000  0.046
  4  0.002  0.016  0.016  0.013  0.000  0.000  0.000  0.000  0.000  0.046
tot  0.029  0.032  0.032  0.027  0.000  0.786  0.004  0.000  0.011  0.920
 
band   8 # energy   -0.84057932 # occ.  1.00000000
 
ion      s     py     pz     px    dxy    dyz    dz2    dxz    dx2    tot
  1  0.000  0.002  0.002  0.000  0.442  0.000  0.000  0.442  0.000  0.888
  2  0.000  0.002  0.002  0.000  0.009  0.000  0.000  0.009  0.000  0.022
  3  0.000  0.014  0.014  0.000  0.000  0.000  0.000  0.000  0.000  0.028
  4  0.000  0.014  0.014  0.000  0.000  0.000  0.000  0.000  0.000  0.028
tot  0.000  0.031  0.031  0.000  0.451  0.000  0.000  0.451  0.000  0.965
 
band   9 # energy   -0.36298474 # occ.  1.00000000
 
ion      s     py     pz     px    dxy    dyz    dz2    dxz    dx2    tot
  1  0.000  0.003  0.003  0.006  0.108  0.000  0.000  0.108  0.000  0.229
  2  0.000  0.003  0.003  0.006  0.269  0.000  0.000  0.269  0.000  0.551
  3  0.000  0.026  0.026  0.029  0.000  0.000  0.000  0.000  0.000  0.081
  4  0.000  0.026  0.026  0.029  0.000  0.000  0.000  0.000  0.000  0.081
tot  0.000  0.059  0.059  0.069  0.377  0.000  0.000  0.377  0.000  0.942
 
band  10 # energy    0.29562616 # occ.  1.00000000
 
ion      s     py     pz     px    dxy    dyz    dz2    dxz    dx2    tot
  1  0.000  0.002  0.002  0.000  0.024  0.000  0.000  0.024  0.000  0.053
  2  0.000  0.002  0.002  0.000  0.418  0.000  0.000  0.418  0.000  0.839
  3  0.000  0.018  0.018  0.000  0.000  0.000  0.000  0.000  0.000  0.036
  4  0.000  0.018  0.018  0.000  0.000  0.000  0.000  0.000  0.000  0.036
tot  0.000  0.040  0.040  0.000  0.442  0.000  0.000  0.442  0.000  0.965
 
band  11 # energy    0.72226640 # occ.  1.00000000
 
ion      s     py     pz     px    dxy    dyz    dz2    dxz    dx2    tot
  1  0.045  0.000  0.000  0.004  0.000  0.072  0.038  0.000  0.114  0.274
  2  0.012  0.000  0.000  0.004  0.000  0.292  0.012  0.000  0.035  0.355
  3  0.016  0.007  0.007  0.119  0.000  0.000  0.000  0.000  0.000  0.149
  4  0.016  0.007  0.007  0.119  0.000  0.000  0.000  0.000  0.000  0.149
tot  0.090  0.014  0.014  0.247  0.000  0.365  0.050  0.000  0.149  0.927
 
band  12 # energy    1.54725957 # occ.  1.00000000
 
ion      s     py     pz     px    dxy    dyz    dz2    dxz    dx2    tot
  1  0.005  0.000  0.000  0.002  0.000  0.096  0.042  0.000  0.126  0.270
  2  0.091  0.000  0.000  0.002  0.000  0.232  0.000  0.000  0.001  0.327
  3  0.018  0.047  0.047  0.054  0.000  0.000  0.000  0.000  0.000  0.166
  4  0.018  0.047  0.047  0.054  0.000  0.000  0.000  0.000  0.000  0.166
tot  0.131  0.094  0.094  0.112  0.000  0.328  0.042  0.000  0.126  0.929
 
band  13 # energy    2.14777736 # occ.  1.00000000
 
ion      s     py     pz     px    dxy    dyz    dz2    dxz    dx2    tot
  1  0.000  0.003  0.003  0.030  0.088  0.000  0.000  0.088  0.000  0.212
  2  0.000  0.003  0.003  0.029  0.057  0.000  0.000  0.057  0.000  0.149
  3  0.000  0.037  0.037  0.220  0.000  0.000  0.000  0.000  0.000  0.293
  4  0.000  0.037  0.037  0.220  0.000  0.000  0.000  0.000  0.000  0.293
tot  0.000  0.080  0.080  0.499  0.145  0.000  0.000  0.145  0.000  0.948
 
band  14 # energy    2.48213954 # occ.  1.00000000
 
ion      s     py     pz     px    dxy    dyz    dz2    dxz    dx2    tot
  1  0.000  0.002  0.002  0.000  0.000  0.000  0.129  0.000  0.043  0.178
  2  0.000  0.000  0.000  0.000  0.001  0.000  0.157  0.001  0.052  0.212
  3  0.000  0.141  0.141  0.000  0.000  0.000  0.000  0.000  0.000  0.282
  4  0.000  0.141  0.141  0.000  0.000  0.000  0.000  0.000  0.000  0.282
tot  0.000  0.284  0.284  0.000  0.001  0.000  0.286  0.001  0.095  0.953
 
band  15 # energy    2.51840294 # occ.  1.00000000
 
ion      s     py     pz     px    dxy    dyz    dz2    dxz    dx2    tot
  1  0.000  0.013  0.013  0.000  0.025  0.000  0.002  0.025  0.001  0.079
  2  0.000  0.015  0.015  0.000  0.063  0.000  0.003  0.063  0.001  0.160
  3  0.000  0.176  0.176  0.000  0.000  0.000  0.000  0.000  0.000  0.353
  4  0.000  0.176  0.176  0.000  0.000  0.000  0.000  0.000  0.000  0.353
tot  0.000  0.381  0.381  0.000  0.088  0.000  0.005  0.088  0.002  0.943
 
band  16 # energy    2.57327547 # occ.  1.00000000
 
ion      s     py     pz     px    dxy    dyz    dz2    dxz    dx2    tot
  1  0.000  0.012  0.012  0.005  0.004  0.000  0.000  0.004  0.000  0.037
  2  0.000  0.012  0.012  0.004  0.116  0.000  0.000  0.116  0.000  0.259
  3  0.000  0.145  0.145  0.037  0.000  0.000  0.000  0.000  0.000  0.327
  4  0.000  0.145  0.145  0.037  0.000  0.000  0.000  0.000  0.000  0.327
tot  0.000  0.313  0.313  0.084  0.120  0.000  0.000  0.120  0.000  0.949
 
band  17 # energy    6.93725111 # occ.  0.00000000
 
ion      s     py     pz     px    dxy    dyz    dz2    dxz    dx2    tot
  1  0.059  0.000  0.000  0.001  0.000  0.000  0.000  0.000  0.000  0.059
  2  0.005  0.000  0.000  0.000  0.000  0.000  0.203  0.000  0.610  0.819
  3  0.027  0.000  0.000  0.002  0.000  0.000  0.000  0.000  0.000  0.030
  4  0.027  0.000  0.000  0.002  0.000  0.000  0.000  0.000  0.000  0.030
tot  0.118  0.001  0.001  0.004  0.000  0.000  0.203  0.000  0.610  0.938
 
band  18 # energy    7.71244137 # occ.  0.00000000
 
ion      s     py     pz     px    dxy    dyz    dz2    dxz    dx2    tot
  1  0.000  0.000  0.000  0.000  0.000  0.000  0.022  0.000  0.007  0.029
  2  0.000  0.000  0.000  0.000  0.000  0.000  0.581  0.000  0.194  0.775
  3  0.000  0.045  0.045  0.000  0.000  0.000  0.000  0.000  0.000  0.090
  4  0.000  0.045  0.045  0.000  0.000  0.000  0.000  0.000  0.000  0.090
tot  0.000  0.090  0.090  0.000  0.000  0.000  0.603  0.000  0.201  0.984
 
band  19 # energy   10.99767285 # occ.  0.00000000
 
ion      s     py     pz     px    dxy    dyz    dz2    dxz    dx2    tot
  1  0.112  0.000  0.000  0.010  0.000  0.000  0.006  0.000  0.019  0.147
  2  0.151  0.000  0.000  0.009  0.000  0.000  0.016  0.000  0.049  0.226
  3  0.056  0.000  0.000  0.164  0.000  0.000  0.000  0.000  0.000  0.221
  4  0.056  0.000  0.000  0.164  0.000  0.000  0.000  0.000  0.000  0.221
tot  0.375  0.000  0.000  0.348  0.000  0.000  0.023  0.000  0.068  0.815
 
band  20 # energy   12.48966217 # occ.  0.00000000
 
ion      s     py     pz     px    dxy    dyz    dz2    dxz    dx2    tot
  1  0.059  0.047  0.047  0.000  0.000  0.003  0.002  0.000  0.005  0.162
  2  0.047  0.044  0.044  0.000  0.000  0.003  0.004  0.000  0.013  0.158
  3  0.049  0.069  0.069  0.001  0.000  0.000  0.000  0.000  0.000  0.188
  4  0.049  0.069  0.069  0.001  0.000  0.000  0.000  0.000  0.000  0.188
tot  0.205  0.229  0.229  0.002  0.000  0.006  0.006  0.000  0.018  0.696
 

 k-point   10 :   -0.25000000 0.25000000 0.25000000     weight = 0.09375000

band   1 # energy  -13.05070681 # occ.  1.00000000
 
ion      s     py     pz     px    dxy    dyz    dz2    dxz    dx2    tot
  1  0.008  0.001  0.001  0.001  0.000  0.000  0.014  0.000  0.041  0.065
  2  0.002  0.008  0.008  0.009  0.000  0.000  0.001  0.000  0.004  0.032
  3  0.428  0.000  0.000  0.000  0.000  0.000  0.000  0.000  0.000  0.428
  4  0.428  0.000  0.000  0.000  0.000  0.000  0.000  0.000  0.000  0.428
tot  0.864  0.009  0.009  0.010  0.000  0.000  0.015  0.000  0.045  0.952
 
band   2 # energy  -12.86216477 # occ.  1.00000000
 
ion      s     py     pz     px    dxy    dyz    dz2    dxz    dx2    tot
  1  0.000  0.010  0.010  0.011  0.000  0.000  0.001  0.000  0.004  0.037
  2  0.007  0.003  0.003  0.002  0.000  0.000  0.005  0.000  0.015  0.035
  3  0.437  0.000  0.000  0.000  0.000  0.000  0.000  0.000  0.000  0.437
  4  0.437  0.000  0.000  0.000  0.000  0.000  0.000  0.000  0.000  0.437
tot  0.880  0.013  0.013  0.014  0.000  0.000  0.006  0.000  0.019  0.945
 
band   3 # energy   -3.26457993 # occ.  1.00000000
 
ion      s     py     pz     px    dxy    dyz    dz2    dxz    dx2    tot
  1  0.072  0.001  0.001  0.002  0.073  0.089  0.001  0.073  0.004  0.316
  2  0.062  0.002  0.002  0.006  0.037  0.033  0.000  0.037  0.000  0.178
  3  0.001  0.050  0.050  0.069  0.000  0.000  0.000  0.000  0.000  0.170
  4  0.001  0.050  0.050  0.069  0.000  0.000  0.000  0.000  0.000  0.170
tot  0.135  0.104  0.104  0.145  0.110  0.122  0.001  0.110  0.004  0.834
 
band   4 # energy   -2.64560716 # occ.  1.00000000
 
ion      s     py     pz     px    dxy    dyz    dz2    dxz    dx2    tot
  1  0.000  0.000  0.000  0.000  0.014  0.000  0.584  0.014  0.195  0.807
  2  0.000  0.002  0.002  0.000  0.004  0.000  0.005  0.004  0.002  0.017
  3  0.000  0.037  0.037  0.000  0.000  0.000  0.000  0.000  0.000  0.075
  4  0.000  0.037  0.037  0.000  0.000  0.000  0.000  0.000  0.000  0.075
tot  0.000  0.077  0.077  0.000  0.018  0.000  0.589  0.018  0.196  0.974
 
band   5 # energy   -2.57074904 # occ.  1.00000000
 
ion      s     py     pz     px    dxy    dyz    dz2    dxz    dx2    tot
  1  0.000  0.000  0.000  0.005  0.008  0.055  0.147  0.008  0.440  0.663
  2  0.003  0.002  0.002  0.026  0.000  0.006  0.002  0.000  0.006  0.047
  3  0.008  0.016  0.016  0.077  0.000  0.000  0.000  0.000  0.000  0.117
  4  0.008  0.016  0.016  0.077  0.000  0.000  0.000  0.000  0.000  0.117
tot  0.019  0.033  0.033  0.186  0.008  0.061  0.149  0.008  0.446  0.943
 
band   6 # energy   -1.60706405 # occ.  1.00000000
 
ion      s     py     pz     px    dxy    dyz    dz2    dxz    dx2    tot
  1  0.001  0.003  0.003  0.037  0.003  0.357  0.000  0.003  0.001  0.408
  2  0.017  0.003  0.003  0.020  0.029  0.104  0.001  0.029  0.003  0.210
  3  0.001  0.014  0.014  0.097  0.000  0.000  0.000  0.000  0.000  0.127
  4  0.001  0.014  0.014  0.097  0.000  0.000  0.000  0.000  0.000  0.127
tot  0.021  0.034  0.034  0.251  0.033  0.461  0.002  0.033  0.005  0.872
 
band   7 # energy   -1.20001787 # occ.  1.00000000
 
ion      s     py     pz     px    dxy    dyz    dz2    dxz    dx2    tot
  1  0.003  0.001  0.001  0.045  0.030  0.213  0.025  0.030  0.074  0.421
  2  0.001  0.000  0.000  0.026  0.012  0.130  0.005  0.012  0.014  0.200
  3  0.005  0.005  0.005  0.119  0.000  0.000  0.000  0.000  0.000  0.133
  4  0.005  0.005  0.005  0.119  0.000  0.000  0.000  0.000  0.000  0.133
tot  0.014  0.010  0.010  0.309  0.042  0.343  0.029  0.042  0.088  0.888
 
band   8 # energy   -0.47474713 # occ.  1.00000000
 
ion      s     py     pz     px    dxy    dyz    dz2    dxz    dx2    tot
  1  0.000  0.000  0.000  0.000  0.451  0.000  0.045  0.451  0.015  0.961
  2  0.000  0.000  0.000  0.000  0.008  0.000  0.001  0.008  0.000  0.018
  3  0.000  0.001  0.001  0.000  0.000  0.000  0.000  0.000  0.000  0.003
  4  0.000  0.001  0.001  0.000  0.000  0.000  0.000  0.000  0.000  0.003
tot  0.000  0.003  0.003  0.000  0.459  0.000  0.046  0.459  0.015  0.985
 
band   9 # energy   -0.39757813 # occ.  1.00000000
 
ion      s     py     pz     px    dxy    dyz    dz2    dxz    dx2    tot
  1  0.000  0.004  0.004  0.006  0.196  0.101  0.014  0.196  0.043  0.563
  2  0.002  0.001  0.001  0.001  0.002  0.273  0.002  0.002  0.007  0.290
  3  0.001  0.017  0.017  0.016  0.000  0.000  0.000  0.000  0.000  0.051
  4  0.001  0.017  0.017  0.016  0.000  0.000  0.000  0.000  0.000  0.051
tot  0.005  0.038  0.038  0.040  0.198  0.374  0.017  0.198  0.050  0.956
 
band  10 # energy    0.46733513 # occ.  1.00000000
 
ion      s     py     pz     px    dxy    dyz    dz2    dxz    dx2    tot
  1  0.000  0.007  0.007  0.000  0.014  0.000  0.007  0.014  0.002  0.052
  2  0.000  0.002  0.002  0.000  0.342  0.000  0.019  0.342  0.006  0.714
  3  0.000  0.048  0.048  0.000  0.000  0.000  0.000  0.000  0.000  0.097
  4  0.000  0.048  0.048  0.000  0.000  0.000  0.000  0.000  0.000  0.097
tot  0.000  0.106  0.106  0.000  0.356  0.000  0.026  0.356  0.009  0.960
 
band  11 # energy    0.58103055 # occ.  1.00000000
 
ion      s     py     pz     px    dxy    dyz    dz2    dxz    dx2    tot
  1  0.018  0.000  0.000  0.005  0.143  0.062  0.008  0.143  0.025  0.404
  2  0.003  0.000  0.000  0.015  0.112  0.191  0.000  0.112  0.000  0.435
  3  0.002  0.007  0.007  0.048  0.000  0.000  0.000  0.000  0.000  0.064
  4  0.002  0.007  0.007  0.048  0.000  0.000  0.000  0.000  0.000  0.064
tot  0.025  0.014  0.014  0.116  0.255  0.253  0.008  0.255  0.025  0.966
 
band  12 # energy    1.20536833 # occ.  1.00000000
 
ion      s     py     pz     px    dxy    dyz    dz2    dxz    dx2    tot
  1  0.037  0.012  0.012  0.005  0.037  0.037  0.001  0.037  0.004  0.183
  2  0.000  0.014  0.014  0.000  0.081  0.028  0.004  0.081  0.012  0.235
  3  0.000  0.112  0.112  0.031  0.000  0.000  0.000  0.000  0.000  0.255
  4  0.000  0.112  0.112  0.031  0.000  0.000  0.000  0.000  0.000  0.255
tot  0.037  0.250  0.250  0.068  0.119  0.065  0.005  0.119  0.015  0.929
 
band  13 # energy    1.59841968 # occ.  1.00000000
 
ion      s     py     pz     px    dxy    dyz    dz2    dxz    dx2    tot
  1  0.000  0.020  0.020  0.000  0.002  0.000  0.003  0.002  0.001  0.047
  2  0.000  0.012  0.012  0.000  0.125  0.000  0.037  0.125  0.012  0.323
  3  0.000  0.142  0.142  0.000  0.000  0.000  0.000  0.000  0.000  0.284
  4  0.000  0.142  0.142  0.000  0.000  0.000  0.000  0.000  0.000  0.284
tot  0.000  0.316  0.316  0.000  0.126  0.000  0.040  0.126  0.013  0.938
 
band  14 # energy    1.62358486 # occ.  1.00000000
 
ion      s     py     pz     px    dxy    dyz    dz2    dxz    dx2    tot
  1  0.005  0.007  0.007  0.001  0.003  0.013  0.000  0.003  0.000  0.039
  2  0.045  0.002  0.002  0.000  0.214  0.155  0.001  0.214  0.003  0.637
  3  0.000  0.067  0.067  0.010  0.000  0.000  0.000  0.000  0.000  0.144
  4  0.000  0.067  0.067  0.010  0.000  0.000  0.000  0.000  0.000  0.144
tot  0.050  0.142  0.142  0.022  0.218  0.167  0.001  0.218  0.003  0.964
 
band  15 # energy    2.69836954 # occ.  1.00000000
 
ion      s     py     pz     px    dxy    dyz    dz2    dxz    dx2    tot
  1  0.001  0.000  0.000  0.003  0.003  0.032  0.049  0.003  0.148  0.240
  2  0.000  0.005  0.005  0.018  0.009  0.027  0.023  0.009  0.070  0.168
  3  0.008  0.055  0.055  0.155  0.000  0.000  0.000  0.000  0.000  0.273
  4  0.008  0.055  0.055  0.155  0.000  0.000  0.000  0.000  0.000  0.273
tot  0.017  0.115  0.115  0.331  0.013  0.059  0.073  0.013  0.218  0.953
 
band  16 # energy    2.88342056 # occ.  1.00000000
 
ion      s     py     pz     px    dxy    dyz    dz2    dxz    dx2    tot
  1  0.000  0.000  0.000  0.000  0.015  0.000  0.124  0.015  0.041  0.195
  2  0.000  0.013  0.013  0.000  0.017  0.000  0.081  0.017  0.027  0.167
  3  0.000  0.149  0.149  0.000  0.000  0.000  0.000  0.000  0.000  0.299
  4  0.000  0.149  0.149  0.000  0.000  0.000  0.000  0.000  0.000  0.299
tot  0.000  0.312  0.312  0.000  0.031  0.000  0.205  0.031  0.068  0.959
 
band  17 # energy    7.67476562 # occ.  0.00000000
 
ion      s     py     pz     px    dxy    dyz    dz2    dxz    dx2    tot
  1  0.000  0.004  0.004  0.000  0.000  0.000  0.009  0.000  0.003  0.021
  2  0.000  0.000  0.000  0.000  0.001  0.000  0.608  0.001  0.203  0.812
  3  0.000  0.037  0.037  0.000  0.000  0.000  0.000  0.000  0.000  0.074
  4  0.000  0.037  0.037  0.000  0.000  0.000  0.000  0.000  0.000  0.074
tot  0.000  0.078  0.078  0.000  0.001  0.000  0.618  0.001  0.206  0.982
 
band  18 # energy    7.74178780 # occ.  0.00000000
 
ion      s     py     pz     px    dxy    dyz    dz2    dxz    dx2    tot
  1  0.000  0.004  0.004  0.009  0.000  0.000  0.001  0.000  0.004  0.023
  2  0.000  0.001  0.001  0.002  0.000  0.001  0.203  0.000  0.609  0.817
  3  0.017  0.010  0.010  0.028  0.000  0.000  0.000  0.000  0.000  0.065
  4  0.017  0.010  0.010  0.028  0.000  0.000  0.000  0.000  0.000  0.065
tot  0.035  0.024  0.024  0.067  0.000  0.002  0.204  0.000  0.613  0.969
 
band  19 # energy   11.76001076 # occ.  0.00000000
 
ion      s     py     pz     px    dxy    dyz    dz2    dxz    dx2    tot
  1  0.052  0.042  0.042  0.041  0.000  0.007  0.002  0.000  0.006  0.191
  2  0.002  0.058  0.058  0.036  0.000  0.004  0.003  0.000  0.008  0.169
  3  0.052  0.001  0.001  0.045  0.000  0.000  0.000  0.000  0.000  0.100
  4  0.052  0.001  0.001  0.045  0.000  0.000  0.000  0.000  0.000  0.100
tot  0.157  0.103  0.103  0.167  0.000  0.011  0.005  0.000  0.014  0.559
 
band  20 # energy   12.00657912 # occ.  0.00000000
 
ion      s     py     pz     px    dxy    dyz    dz2    dxz    dx2    tot
  1  0.288  0.017  0.017  0.000  0.000  0.000  0.000  0.000  0.001  0.323
  2  0.301  0.000  0.000  0.007  0.000  0.002  0.003  0.000  0.009  0.322
  3  0.023  0.008  0.008  0.019  0.000  0.000  0.000  0.000  0.000  0.058
  4  0.023  0.008  0.008  0.019  0.000  0.000  0.000  0.000  0.000  0.058
tot  0.636  0.033  0.033  0.046  0.000  0.002  0.003  0.000  0.009  0.762
 

 k-point   11 :    0.50000000 0.50000000 0.25000000     weight = 0.09375000

band   1 # energy  -13.47609029 # occ.  1.00000000
 
ion      s     py     pz     px    dxy    dyz    dz2    dxz    dx2    tot
  1  0.019  0.010  0.000  0.010  0.000  0.000  0.006  0.000  0.000  0.046
  2  0.032  0.008  0.003  0.008  0.000  0.000  0.000  0.000  0.000  0.050
  3  0.413  0.001  0.000  0.001  0.000  0.000  0.000  0.000  0.000  0.414
  4  0.413  0.001  0.000  0.001  0.000  0.000  0.000  0.000  0.000  0.414
tot  0.877  0.019  0.003  0.019  0.000  0.000  0.007  0.000  0.000  0.925
 
band   2 # energy  -13.28026831 # occ.  1.00000000
 
ion      s     py     pz     px    dxy    dyz    dz2    dxz    dx2    tot
  1  0.026  0.000  0.012  0.000  0.000  0.000  0.019  0.000  0.000  0.058
  2  0.011  0.003  0.009  0.003  0.000  0.000  0.011  0.000  0.000  0.037
  3  0.419  0.000  0.001  0.000  0.000  0.000  0.000  0.000  0.000  0.420
  4  0.419  0.000  0.001  0.000  0.000  0.000  0.000  0.000  0.000  0.420
tot  0.877  0.003  0.022  0.003  0.000  0.000  0.030  0.000  0.000  0.936
 
band   3 # energy   -3.05776858 # occ.  1.00000000
 
ion      s     py     pz     px    dxy    dyz    dz2    dxz    dx2    tot
  1  0.000  0.000  0.009  0.000  0.028  0.009  0.570  0.009  0.000  0.624
  2  0.039  0.000  0.009  0.000  0.013  0.000  0.000  0.000  0.000  0.062
  3  0.001  0.023  0.075  0.023  0.000  0.000  0.000  0.000  0.000  0.121
  4  0.001  0.023  0.075  0.023  0.000  0.000  0.000  0.000  0.000  0.121
tot  0.040  0.045  0.169  0.045  0.041  0.009  0.570  0.009  0.000  0.929
 
band   4 # energy   -2.61028419 # occ.  1.00000000
 
ion      s     py     pz     px    dxy    dyz    dz2    dxz    dx2    tot
  1  0.000  0.000  0.000  0.000  0.000  0.000  0.000  0.000  0.831  0.832
  2  0.000  0.000  0.000  0.000  0.000  0.003  0.000  0.003  0.005  0.012
  3  0.000  0.033  0.000  0.033  0.000  0.000  0.000  0.000  0.000  0.066
  4  0.000  0.033  0.000  0.033  0.000  0.000  0.000  0.000  0.000  0.066
tot  0.000  0.067  0.000  0.067  0.000  0.003  0.000  0.003  0.836  0.976
 
band   5 # energy   -2.01061187 # occ.  1.00000000
 
ion      s     py     pz     px    dxy    dyz    dz2    dxz    dx2    tot
  1  0.061  0.000  0.000  0.000  0.259  0.038  0.039  0.038  0.000  0.435
  2  0.007  0.001  0.015  0.001  0.013  0.056  0.011  0.056  0.000  0.160
  3  0.008  0.036  0.064  0.036  0.000  0.000  0.000  0.000  0.000  0.144
  4  0.008  0.036  0.064  0.036  0.000  0.000  0.000  0.000  0.000  0.144
tot  0.084  0.073  0.142  0.073  0.271  0.094  0.050  0.094  0.000  0.882
 
band   6 # energy   -1.66429388 # occ.  1.00000000
 
ion      s     py     pz     px    dxy    dyz    dz2    dxz    dx2    tot
  1  0.004  0.003  0.009  0.003  0.202  0.222  0.032  0.222  0.000  0.697
  2  0.010  0.002  0.001  0.002  0.044  0.002  0.004  0.002  0.000  0.066
  3  0.003  0.018  0.037  0.018  0.000  0.000  0.000  0.000  0.000  0.076
  4  0.003  0.018  0.037  0.018  0.000  0.000  0.000  0.000  0.000  0.076
tot  0.020  0.040  0.085  0.040  0.246  0.224  0.036  0.224  0.000  0.915
 
band   7 # energy   -0.85080291 # occ.  1.00000000
 
ion      s     py     pz     px    dxy    dyz    dz2    dxz    dx2    tot
  1  0.028  0.000  0.006  0.000  0.201  0.061  0.009  0.061  0.000  0.367
  2  0.001  0.000  0.002  0.000  0.356  0.001  0.024  0.001  0.000  0.385
  3  0.005  0.022  0.034  0.022  0.000  0.000  0.000  0.000  0.000  0.082
  4  0.005  0.022  0.034  0.022  0.000  0.000  0.000  0.000  0.000  0.082
tot  0.039  0.044  0.075  0.044  0.558  0.061  0.033  0.061  0.000  0.915
 
band   8 # energy   -0.83255382 # occ.  1.00000000
 
ion      s     py     pz     px    dxy    dyz    dz2    dxz    dx2    tot
  1  0.000  0.002  0.000  0.002  0.000  0.452  0.000  0.452  0.000  0.908
  2  0.000  0.001  0.000  0.001  0.000  0.000  0.000  0.000  0.005  0.007
  3  0.000  0.013  0.000  0.013  0.000  0.000  0.000  0.000  0.000  0.026
  4  0.000  0.013  0.000  0.013  0.000  0.000  0.000  0.000  0.000  0.026
tot  0.000  0.029  0.000  0.029  0.000  0.452  0.000  0.452  0.005  0.967
 
band   9 # energy   -0.37569030 # occ.  1.00000000
 
ion      s     py     pz     px    dxy    dyz    dz2    dxz    dx2    tot
  1  0.003  0.003  0.001  0.003  0.155  0.000  0.108  0.000  0.000  0.275
  2  0.012  0.002  0.005  0.002  0.110  0.184  0.001  0.184  0.000  0.501
  3  0.005  0.029  0.018  0.029  0.000  0.000  0.000  0.000  0.000  0.081
  4  0.005  0.029  0.018  0.029  0.000  0.000  0.000  0.000  0.000  0.081
tot  0.025  0.064  0.041  0.064  0.265  0.185  0.109  0.185  0.000  0.939
 
band  10 # energy    0.30904381 # occ.  1.00000000
 
ion      s     py     pz     px    dxy    dyz    dz2    dxz    dx2    tot
  1  0.000  0.002  0.000  0.002  0.000  0.002  0.000  0.002  0.017  0.027
  2  0.000  0.003  0.000  0.003  0.000  0.421  0.000  0.421  0.003  0.852
  3  0.000  0.021  0.000  0.021  0.000  0.000  0.000  0.000  0.000  0.042
  4  0.000  0.021  0.000  0.021  0.000  0.000  0.000  0.000  0.000  0.042
tot  0.000  0.047  0.000  0.047  0.000  0.424  0.000  0.424  0.020  0.963
 
band  11 # energy    0.65665471 # occ.  1.00000000
 
ion      s     py     pz     px    dxy    dyz    dz2    dxz    dx2    tot
  1  0.014  0.000  0.024  0.000  0.008  0.103  0.089  0.103  0.000  0.342
  2  0.018  0.000  0.004  0.000  0.059  0.091  0.045  0.091  0.000  0.308
  3  0.009  0.001  0.132  0.001  0.000  0.000  0.000  0.000  0.000  0.144
  4  0.009  0.001  0.132  0.001  0.000  0.000  0.000  0.000  0.000  0.144
tot  0.050  0.003  0.292  0.003  0.068  0.194  0.134  0.194  0.000  0.938
 
band  12 # energy    1.36385604 # occ.  1.00000000
 
ion      s     py     pz     px    dxy    dyz    dz2    dxz    dx2    tot
  1  0.021  0.000  0.002  0.000  0.087  0.029  0.032  0.029  0.000  0.201
  2  0.062  0.000  0.000  0.000  0.340  0.017  0.003  0.017  0.000  0.440
  3  0.011  0.059  0.022  0.059  0.000  0.000  0.000  0.000  0.000  0.151
  4  0.011  0.059  0.022  0.059  0.000  0.000  0.000  0.000  0.000  0.151
tot  0.106  0.118  0.046  0.118  0.426  0.046  0.035  0.046  0.000  0.943
 
band  13 # energy    1.96682955 # occ.  1.00000000
 
ion      s     py     pz     px    dxy    dyz    dz2    dxz    dx2    tot
  1  0.000  0.010  0.000  0.010  0.000  0.035  0.000  0.035  0.013  0.103
  2  0.000  0.008  0.000  0.008  0.000  0.042  0.000  0.042  0.121  0.220
  3  0.000  0.157  0.000  0.157  0.000  0.000  0.000  0.000  0.000  0.313
  4  0.000  0.157  0.000  0.157  0.000  0.000  0.000  0.000  0.000  0.313
tot  0.000  0.331  0.000  0.331  0.000  0.077  0.000  0.077  0.134  0.949
 
band  14 # energy    2.18872315 # occ.  1.00000000
 
ion      s     py     pz     px    dxy    dyz    dz2    dxz    dx2    tot
  1  0.014  0.011  0.005  0.011  0.015  0.007  0.025  0.007  0.000  0.095
  2  0.001  0.011  0.000  0.011  0.020  0.098  0.030  0.098  0.000  0.270
  3  0.001  0.130  0.030  0.130  0.000  0.000  0.000  0.000  0.000  0.291
  4  0.001  0.130  0.030  0.130  0.000  0.000  0.000  0.000  0.000  0.291
tot  0.017  0.282  0.066  0.282  0.035  0.105  0.055  0.105  0.000  0.946
 
band  15 # energy    2.80553616 # occ.  1.00000000
 
ion      s     py     pz     px    dxy    dyz    dz2    dxz    dx2    tot
  1  0.000  0.001  0.010  0.001  0.011  0.023  0.092  0.023  0.000  0.161
  2  0.003  0.001  0.035  0.001  0.004  0.040  0.006  0.040  0.000  0.132
  3  0.004  0.025  0.274  0.025  0.000  0.000  0.000  0.000  0.000  0.327
  4  0.004  0.025  0.274  0.025  0.000  0.000  0.000  0.000  0.000  0.327
tot  0.011  0.052  0.593  0.052  0.014  0.064  0.098  0.064  0.000  0.947
 
band  16 # energy    3.06951675 # occ.  1.00000000
 
ion      s     py     pz     px    dxy    dyz    dz2    dxz    dx2    tot
  1  0.000  0.005  0.000  0.005  0.000  0.002  0.000  0.002  0.154  0.166
  2  0.000  0.008  0.000  0.008  0.000  0.024  0.000  0.024  0.080  0.143
  3  0.000  0.161  0.000  0.161  0.000  0.000  0.000  0.000  0.000  0.322
  4  0.000  0.161  0.000  0.161  0.000  0.000  0.000  0.000  0.000  0.322
tot  0.000  0.335  0.000  0.335  0.000  0.025  0.000  0.025  0.233  0.954
 
band  17 # energy    7.19134787 # occ.  0.00000000
 
ion      s     py     pz     px    dxy    dyz    dz2    dxz    dx2    tot
  1  0.030  0.001  0.008  0.001  0.000  0.000  0.001  0.000  0.000  0.042
  2  0.000  0.001  0.000  0.001  0.000  0.000  0.812  0.000  0.000  0.816
  3  0.021  0.005  0.014  0.005  0.000  0.000  0.000  0.000  0.000  0.046
  4  0.021  0.005  0.014  0.005  0.000  0.000  0.000  0.000  0.000  0.046
tot  0.073  0.013  0.037  0.013  0.001  0.001  0.813  0.001  0.000  0.951
 
band  18 # energy    7.65139710 # occ.  0.00000000
 
ion      s     py     pz     px    dxy    dyz    dz2    dxz    dx2    tot
  1  0.000  0.003  0.000  0.003  0.000  0.000  0.000  0.000  0.014  0.020
  2  0.000  0.000  0.000  0.000  0.000  0.000  0.000  0.000  0.782  0.782
  3  0.000  0.044  0.000  0.044  0.000  0.000  0.000  0.000  0.000  0.089
  4  0.000  0.044  0.000  0.044  0.000  0.000  0.000  0.000  0.000  0.089
tot  0.000  0.091  0.000  0.091  0.000  0.000  0.000  0.000  0.796  0.979
 
band  19 # energy   10.88961999 # occ.  0.00000000
 
ion      s     py     pz     px    dxy    dyz    dz2    dxz    dx2    tot
  1  0.070  0.036  0.006  0.036  0.000  0.001  0.005  0.001  0.000  0.154
  2  0.094  0.030  0.008  0.030  0.000  0.001  0.015  0.001  0.000  0.179
  3  0.071  0.061  0.001  0.061  0.000  0.000  0.000  0.000  0.000  0.194
  4  0.071  0.061  0.001  0.061  0.000  0.000  0.000  0.000  0.000  0.194
tot  0.306  0.188  0.015  0.188  0.001  0.002  0.021  0.002  0.000  0.721
 
band  20 # energy   11.93685638 # occ.  0.00000000
 
ion      s     py     pz     px    dxy    dyz    dz2    dxz    dx2    tot
  1  0.168  0.005  0.003  0.005  0.001  0.000  0.019  0.000  0.000  0.200
  2  0.158  0.007  0.003  0.007  0.001  0.000  0.043  0.000  0.000  0.220
  3  0.042  0.004  0.138  0.004  0.000  0.000  0.000  0.000  0.000  0.187
  4  0.042  0.004  0.138  0.004  0.000  0.000  0.000  0.000  0.000  0.187
tot  0.409  0.020  0.282  0.020  0.001  0.000  0.061  0.000  0.000  0.795
 

 k-point   12 :   -0.25000000 0.50000000 0.25000000     weight = 0.09375000

band   1 # energy  -13.02140376 # occ.  1.00000000
 
ion      s     py     pz     px    dxy    dyz    dz2    dxz    dx2    tot
  1  0.000  0.010  0.000  0.000  0.000  0.000  0.033  0.000  0.011  0.054
  2  0.009  0.000  0.011  0.011  0.000  0.000  0.002  0.000  0.005  0.037
  3  0.429  0.000  0.000  0.000  0.000  0.000  0.000  0.000  0.000  0.429
  4  0.429  0.000  0.000  0.000  0.000  0.000  0.000  0.000  0.000  0.429
tot  0.867  0.010  0.011  0.011  0.000  0.000  0.034  0.000  0.016  0.950
 
band   2 # energy  -12.89719426 # occ.  1.00000000
 
ion      s     py     pz     px    dxy    dyz    dz2    dxz    dx2    tot
  1  0.009  0.000  0.012  0.012  0.000  0.000  0.004  0.000  0.011  0.048
  2  0.000  0.010  0.000  0.000  0.000  0.000  0.015  0.000  0.005  0.030
  3  0.434  0.000  0.000  0.000  0.000  0.000  0.000  0.000  0.000  0.435
  4  0.434  0.000  0.000  0.000  0.000  0.000  0.000  0.000  0.000  0.435
tot  0.878  0.010  0.012  0.012  0.000  0.000  0.018  0.000  0.016  0.947
 
band   3 # energy   -2.75649700 # occ.  1.00000000
 
ion      s     py     pz     px    dxy    dyz    dz2    dxz    dx2    tot
  1  0.000  0.001  0.010  0.010  0.041  0.041  0.332  0.000  0.111  0.545
  2  0.031  0.000  0.013  0.013  0.005  0.005  0.000  0.024  0.000  0.090
  3  0.002  0.011  0.062  0.062  0.000  0.000  0.000  0.000  0.000  0.136
  4  0.002  0.011  0.062  0.062  0.000  0.000  0.000  0.000  0.000  0.136
tot  0.034  0.023  0.147  0.147  0.046  0.046  0.332  0.024  0.111  0.908
 
band   4 # energy   -2.71691029 # occ.  1.00000000
 
ion      s     py     pz     px    dxy    dyz    dz2    dxz    dx2    tot
  1  0.018  0.000  0.003  0.003  0.001  0.001  0.145  0.080  0.435  0.685
  2  0.000  0.001  0.011  0.011  0.004  0.004  0.000  0.000  0.000  0.032
  3  0.000  0.013  0.048  0.048  0.000  0.000  0.000  0.000  0.000  0.109
  4  0.000  0.013  0.048  0.048  0.000  0.000  0.000  0.000  0.000  0.109
tot  0.019  0.027  0.110  0.110  0.005  0.005  0.145  0.080  0.435  0.936
 
band   5 # energy   -2.38300712 # occ.  1.00000000
 
ion      s     py     pz     px    dxy    dyz    dz2    dxz    dx2    tot
  1  0.000  0.009  0.006  0.006  0.158  0.158  0.161  0.000  0.054  0.553
  2  0.040  0.000  0.002  0.002  0.018  0.018  0.000  0.028  0.000  0.108
  3  0.005  0.034  0.039  0.039  0.000  0.000  0.000  0.000  0.000  0.118
  4  0.005  0.034  0.039  0.039  0.000  0.000  0.000  0.000  0.000  0.118
tot  0.051  0.077  0.087  0.087  0.176  0.176  0.161  0.028  0.054  0.897
 
band   6 # energy   -2.26720616 # occ.  1.00000000
 
ion      s     py     pz     px    dxy    dyz    dz2    dxz    dx2    tot
  1  0.068  0.000  0.000  0.000  0.008  0.008  0.040  0.088  0.120  0.332
  2  0.000  0.015  0.009  0.009  0.099  0.099  0.001  0.000  0.000  0.234
  3  0.004  0.090  0.030  0.030  0.000  0.000  0.000  0.000  0.000  0.153
  4  0.004  0.090  0.030  0.030  0.000  0.000  0.000  0.000  0.000  0.153
tot  0.075  0.196  0.069  0.069  0.107  0.107  0.041  0.088  0.120  0.873
 
band   7 # energy   -1.26604636 # occ.  1.00000000
 
ion      s     py     pz     px    dxy    dyz    dz2    dxz    dx2    tot
  1  0.001  0.000  0.010  0.010  0.353  0.353  0.008  0.010  0.025  0.770
  2  0.000  0.000  0.001  0.001  0.011  0.011  0.014  0.000  0.005  0.042
  3  0.002  0.001  0.029  0.029  0.000  0.000  0.000  0.000  0.000  0.060
  4  0.002  0.001  0.029  0.029  0.000  0.000  0.000  0.000  0.000  0.060
tot  0.004  0.001  0.068  0.068  0.364  0.364  0.022  0.010  0.029  0.931
 
band   8 # energy   -0.51274379 # occ.  1.00000000
 
ion      s     py     pz     px    dxy    dyz    dz2    dxz    dx2    tot
  1  0.000  0.003  0.011  0.011  0.135  0.135  0.057  0.000  0.019  0.371
  2  0.017  0.000  0.002  0.002  0.045  0.045  0.006  0.206  0.018  0.342
  3  0.005  0.009  0.046  0.046  0.000  0.000  0.000  0.000  0.000  0.107
  4  0.005  0.009  0.046  0.046  0.000  0.000  0.000  0.000  0.000  0.107
tot  0.026  0.022  0.106  0.106  0.181  0.181  0.063  0.206  0.037  0.926
 
band   9 # energy   -0.24058633 # occ.  1.00000000
 
ion      s     py     pz     px    dxy    dyz    dz2    dxz    dx2    tot
  1  0.006  0.000  0.001  0.001  0.009  0.009  0.009  0.706  0.028  0.771
  2  0.000  0.003  0.000  0.000  0.080  0.080  0.001  0.000  0.000  0.165
  3  0.000  0.011  0.005  0.005  0.000  0.000  0.000  0.000  0.000  0.021
  4  0.000  0.011  0.005  0.005  0.000  0.000  0.000  0.000  0.000  0.021
tot  0.006  0.024  0.012  0.012  0.089  0.089  0.011  0.706  0.028  0.977
 
band  10 # energy    0.35217892 # occ.  1.00000000
 
ion      s     py     pz     px    dxy    dyz    dz2    dxz    dx2    tot
  1  0.000  0.001  0.001  0.001  0.033  0.033  0.044  0.000  0.015  0.127
  2  0.000  0.000  0.002  0.002  0.354  0.354  0.001  0.078  0.003  0.794
  3  0.002  0.009  0.007  0.007  0.000  0.000  0.000  0.000  0.000  0.024
  4  0.002  0.009  0.007  0.007  0.000  0.000  0.000  0.000  0.000  0.024
tot  0.003  0.019  0.016  0.016  0.387  0.387  0.045  0.078  0.018  0.969
 
band  11 # energy    0.85561303 # occ.  1.00000000
 
ion      s     py     pz     px    dxy    dyz    dz2    dxz    dx2    tot
  1  0.001  0.000  0.026  0.026  0.114  0.114  0.005  0.023  0.014  0.321
  2  0.000  0.001  0.003  0.003  0.060  0.060  0.056  0.000  0.019  0.202
  3  0.001  0.002  0.102  0.102  0.000  0.000  0.000  0.000  0.000  0.207
  4  0.001  0.002  0.102  0.102  0.000  0.000  0.000  0.000  0.000  0.207
tot  0.003  0.006  0.232  0.232  0.173  0.173  0.061  0.023  0.033  0.937
 
band  12 # energy    1.21528078 # occ.  1.00000000
 
ion      s     py     pz     px    dxy    dyz    dz2    dxz    dx2    tot
  1  0.000  0.027  0.000  0.000  0.121  0.121  0.000  0.000  0.000  0.269
  2  0.051  0.000  0.000  0.000  0.004  0.004  0.010  0.157  0.031  0.258
  3  0.000  0.203  0.004  0.004  0.000  0.000  0.000  0.000  0.000  0.211
  4  0.000  0.203  0.004  0.004  0.000  0.000  0.000  0.000  0.000  0.211
tot  0.052  0.432  0.008  0.008  0.125  0.125  0.010  0.157  0.031  0.949
 
band  13 # energy    1.44533997 # occ.  1.00000000
 
ion      s     py     pz     px    dxy    dyz    dz2    dxz    dx2    tot
  1  0.056  0.000  0.004  0.004  0.001  0.001  0.001  0.068  0.003  0.138
  2  0.000  0.002  0.005  0.005  0.212  0.212  0.019  0.000  0.006  0.460
  3  0.001  0.026  0.076  0.076  0.000  0.000  0.000  0.000  0.000  0.178
  4  0.001  0.026  0.076  0.076  0.000  0.000  0.000  0.000  0.000  0.178
tot  0.057  0.053  0.160  0.160  0.213  0.213  0.020  0.068  0.009  0.953
 
band  14 # energy    1.51692983 # occ.  1.00000000
 
ion      s     py     pz     px    dxy    dyz    dz2    dxz    dx2    tot
  1  0.000  0.011  0.009  0.009  0.001  0.001  0.011  0.000  0.004  0.045
  2  0.002  0.000  0.003  0.003  0.013  0.013  0.016  0.488  0.049  0.588
  3  0.001  0.075  0.044  0.044  0.000  0.000  0.000  0.000  0.000  0.165
  4  0.001  0.075  0.044  0.044  0.000  0.000  0.000  0.000  0.000  0.165
tot  0.004  0.161  0.101  0.101  0.013  0.013  0.028  0.488  0.053  0.962
 
band  15 # energy    2.64400462 # occ.  1.00000000
 
ion      s     py     pz     px    dxy    dyz    dz2    dxz    dx2    tot
  1  0.000  0.001  0.000  0.000  0.000  0.000  0.141  0.000  0.047  0.189
  2  0.005  0.000  0.029  0.029  0.046  0.046  0.002  0.012  0.007  0.175
  3  0.006  0.004  0.139  0.139  0.000  0.000  0.000  0.000  0.000  0.287
  4  0.006  0.004  0.139  0.139  0.000  0.000  0.000  0.000  0.000  0.287
tot  0.016  0.009  0.306  0.306  0.046  0.046  0.143  0.012  0.054  0.939
 
band  16 # energy    2.86907991 # occ.  1.00000000
 
ion      s     py     pz     px    dxy    dyz    dz2    dxz    dx2    tot
  1  0.002  0.000  0.000  0.000  0.001  0.001  0.046  0.017  0.138  0.205
  2  0.000  0.037  0.008  0.008  0.020  0.020  0.003  0.000  0.001  0.099
  3  0.002  0.236  0.041  0.041  0.000  0.000  0.000  0.000  0.000  0.319
  4  0.002  0.236  0.041  0.041  0.000  0.000  0.000  0.000  0.000  0.319
tot  0.006  0.509  0.090  0.090  0.021  0.021  0.049  0.017  0.139  0.943
 
band  17 # energy    7.54510264 # occ.  0.00000000
 
ion      s     py     pz     px    dxy    dyz    dz2    dxz    dx2    tot
  1  0.000  0.013  0.003  0.003  0.000  0.000  0.000  0.000  0.000  0.019
  2  0.000  0.000  0.000  0.000  0.000  0.000  0.211  0.001  0.634  0.847
  3  0.005  0.035  0.007  0.007  0.000  0.000  0.000  0.000  0.000  0.054
  4  0.005  0.035  0.007  0.007  0.000  0.000  0.000  0.000  0.000  0.054
tot  0.010  0.083  0.016  0.016  0.000  0.000  0.211  0.001  0.634  0.973
 
band  18 # energy    7.56647121 # occ.  0.00000000
 
ion      s     py     pz     px    dxy    dyz    dz2    dxz    dx2    tot
  1  0.000  0.000  0.011  0.011  0.001  0.001  0.000  0.000  0.000  0.023
  2  0.000  0.000  0.000  0.000  0.000  0.000  0.635  0.000  0.212  0.847
  3  0.015  0.000  0.017  0.017  0.000  0.000  0.000  0.000  0.000  0.049
  4  0.015  0.000  0.017  0.017  0.000  0.000  0.000  0.000  0.000  0.049
tot  0.031  0.000  0.045  0.045  0.001  0.001  0.635  0.000  0.212  0.969
 
band  19 # energy   12.77065911 # occ.  0.00000000
 
ion      s     py     pz     px    dxy    dyz    dz2    dxz    dx2    tot
  1  0.306  0.000  0.025  0.025  0.006  0.006  0.001  0.001  0.002  0.372
  2  0.000  0.058  0.006  0.006  0.003  0.003  0.012  0.000  0.004  0.092
  3  0.030  0.007  0.046  0.046  0.000  0.000  0.000  0.000  0.000  0.128
  4  0.030  0.007  0.046  0.046  0.000  0.000  0.000  0.000  0.000  0.128
tot  0.367  0.071  0.123  0.123  0.009  0.009  0.013  0.001  0.006  0.721
 
band  20 # energy   12.87921733 # occ.  0.00000000
 
ion      s     py     pz     px    dxy    dyz    dz2    dxz    dx2    tot
  1  0.000  0.063  0.006  0.006  0.003  0.003  0.007  0.000  0.002  0.090
  2  0.271  0.000  0.033  0.033  0.008  0.008  0.001  0.001  0.004  0.358
  3  0.035  0.003  0.043  0.043  0.000  0.000  0.000  0.000  0.000  0.125
  4  0.035  0.003  0.043  0.043  0.000  0.000  0.000  0.000  0.000  0.125
tot  0.342  0.068  0.125  0.125  0.011  0.011  0.009  0.001  0.007  0.699
 

 k-point   13 :    0.50000000 0.50000000 0.50000000     weight = 0.01562500

band   1 # energy  -13.78240840 # occ.  1.00000000
 
ion      s     py     pz     px    dxy    dyz    dz2    dxz    dx2    tot
  1  0.077  0.000  0.000  0.000  0.000  0.000  0.000  0.000  0.000  0.077
  2  0.000  0.010  0.010  0.010  0.000  0.000  0.000  0.000  0.000  0.029
  3  0.403  0.000  0.000  0.000  0.000  0.000  0.000  0.000  0.000  0.404
  4  0.403  0.000  0.000  0.000  0.000  0.000  0.000  0.000  0.000  0.404
tot  0.882  0.011  0.011  0.011  0.000  0.000  0.000  0.000  0.000  0.914
 
band   2 # energy  -13.76104319 # occ.  1.00000000
 
ion      s     py     pz     px    dxy    dyz    dz2    dxz    dx2    tot
  1  0.000  0.010  0.010  0.010  0.000  0.000  0.000  0.000  0.000  0.030
  2  0.075  0.000  0.000  0.000  0.000  0.000  0.000  0.000  0.000  0.075
  3  0.404  0.000  0.000  0.000  0.000  0.000  0.000  0.000  0.000  0.405
  4  0.404  0.000  0.000  0.000  0.000  0.000  0.000  0.000  0.000  0.405
tot  0.883  0.011  0.011  0.011  0.000  0.000  0.000  0.000  0.000  0.915
 
band   3 # energy   -2.67733662 # occ.  1.00000000
 
ion      s     py     pz     px    dxy    dyz    dz2    dxz    dx2    tot
  1  0.000  0.000  0.000  0.000  0.009  0.016  0.317  0.008  0.498  0.847
  2  0.000  0.000  0.000  0.000  0.000  0.000  0.000  0.000  0.000  0.001
  3  0.000  0.016  0.016  0.031  0.000  0.000  0.000  0.000  0.000  0.062
  4  0.000  0.016  0.016  0.031  0.000  0.000  0.000  0.000  0.000  0.062
tot  0.000  0.031  0.033  0.062  0.009  0.016  0.317  0.008  0.498  0.973
 
band   4 # energy   -2.67733662 # occ.  1.00000000
 
ion      s     py     pz     px    dxy    dyz    dz2    dxz    dx2    tot
  1  0.000  0.000  0.000  0.000  0.013  0.006  0.498  0.014  0.317  0.847
  2  0.000  0.000  0.000  0.000  0.000  0.000  0.000  0.000  0.000  0.001
  3  0.000  0.026  0.025  0.011  0.000  0.000  0.000  0.000  0.000  0.062
  4  0.000  0.026  0.025  0.011  0.000  0.000  0.000  0.000  0.000  0.062
tot  0.000  0.052  0.051  0.022  0.013  0.006  0.498  0.014  0.317  0.973
 
band   5 # energy   -2.09046009 # occ.  1.00000000
 
ion      s     py     pz     px    dxy    dyz    dz2    dxz    dx2    tot
  1  0.048  0.000  0.000  0.000  0.210  0.210  0.000  0.210  0.000  0.678
  2  0.000  0.003  0.003  0.003  0.000  0.000  0.000  0.000  0.000  0.009
  3  0.008  0.033  0.033  0.033  0.000  0.000  0.000  0.000  0.000  0.105
  4  0.008  0.033  0.033  0.033  0.000  0.000  0.000  0.000  0.000  0.105
tot  0.063  0.068  0.068  0.068  0.210  0.210  0.000  0.210  0.000  0.897
 
band   6 # energy   -1.49248491 # occ.  1.00000000
 
ion      s     py     pz     px    dxy    dyz    dz2    dxz    dx2    tot
  1  0.000  0.004  0.004  0.004  0.000  0.000  0.000  0.000  0.000  0.011
  2  0.074  0.000  0.000  0.000  0.155  0.155  0.000  0.155  0.000  0.539
  3  0.011  0.051  0.051  0.051  0.000  0.000  0.000  0.000  0.000  0.162
  4  0.011  0.051  0.051  0.051  0.000  0.000  0.000  0.000  0.000  0.162
tot  0.096  0.105  0.105  0.105  0.155  0.155  0.000  0.155  0.000  0.875
 
band   7 # energy   -0.87903747 # occ.  1.00000000
 
ion      s     py     pz     px    dxy    dyz    dz2    dxz    dx2    tot
  1  0.000  0.000  0.000  0.000  0.385  0.146  0.031  0.385  0.018  0.967
  2  0.000  0.000  0.000  0.000  0.000  0.000  0.000  0.000  0.000  0.001
  3  0.000  0.000  0.000  0.000  0.000  0.000  0.000  0.000  0.000  0.001
  4  0.000  0.000  0.000  0.000  0.000  0.000  0.000  0.000  0.000  0.001
tot  0.000  0.001  0.001  0.000  0.385  0.146  0.031  0.385  0.018  0.969
 
band   8 # energy   -0.87903747 # occ.  1.00000000
 
ion      s     py     pz     px    dxy    dyz    dz2    dxz    dx2    tot
  1  0.000  0.000  0.000  0.000  0.226  0.465  0.018  0.226  0.031  0.967
  2  0.000  0.000  0.000  0.000  0.000  0.000  0.000  0.000  0.000  0.001
  3  0.000  0.000  0.000  0.001  0.000  0.000  0.000  0.000  0.000  0.001
  4  0.000  0.000  0.000  0.001  0.000  0.000  0.000  0.000  0.000  0.001
tot  0.000  0.001  0.001  0.001  0.226  0.465  0.018  0.226  0.031  0.969
 
band   9 # energy    0.02029324 # occ.  1.00000000
 
ion      s     py     pz     px    dxy    dyz    dz2    dxz    dx2    tot
  1  0.000  0.001  0.002  0.000  0.000  0.000  0.000  0.000  0.000  0.004
  2  0.000  0.000  0.000  0.000  0.505  0.067  0.018  0.262  0.002  0.854
  3  0.000  0.015  0.029  0.004  0.000  0.000  0.000  0.000  0.000  0.048
  4  0.000  0.015  0.029  0.004  0.000  0.000  0.000  0.000  0.000  0.048
tot  0.000  0.031  0.060  0.008  0.505  0.067  0.018  0.262  0.002  0.954
 
band  10 # energy    0.02029324 # occ.  1.00000000
 
ion      s     py     pz     px    dxy    dyz    dz2    dxz    dx2    tot
  1  0.000  0.001  0.000  0.002  0.000  0.000  0.000  0.000  0.000  0.004
  2  0.000  0.000  0.000  0.000  0.051  0.489  0.002  0.294  0.018  0.854
  3  0.000  0.017  0.003  0.028  0.000  0.000  0.000  0.000  0.000  0.048
  4  0.000  0.017  0.003  0.028  0.000  0.000  0.000  0.000  0.000  0.048
tot  0.000  0.035  0.006  0.059  0.051  0.489  0.002  0.294  0.018  0.954
 
band  11 # energy    1.05121568 # occ.  1.00000000
 
ion      s     py     pz     px    dxy    dyz    dz2    dxz    dx2    tot
  1  0.116  0.000  0.000  0.000  0.114  0.114  0.000  0.114  0.000  0.458
  2  0.000  0.001  0.001  0.001  0.000  0.000  0.000  0.000  0.000  0.004
  3  0.019  0.069  0.069  0.069  0.000  0.000  0.000  0.000  0.000  0.227
  4  0.019  0.069  0.069  0.069  0.000  0.000  0.000  0.000  0.000  0.227
tot  0.154  0.140  0.140  0.140  0.114  0.114  0.000  0.114  0.000  0.916
 
band  12 # energy    1.61247643 # occ.  1.00000000
 
ion      s     py     pz     px    dxy    dyz    dz2    dxz    dx2    tot
  1  0.000  0.001  0.001  0.001  0.000  0.000  0.000  0.000  0.000  0.002
  2  0.088  0.000  0.000  0.000  0.167  0.167  0.000  0.167  0.000  0.589
  3  0.014  0.053  0.053  0.053  0.000  0.000  0.000  0.000  0.000  0.172
  4  0.014  0.053  0.053  0.053  0.000  0.000  0.000  0.000  0.000  0.172
tot  0.115  0.106  0.106  0.106  0.167  0.167  0.000  0.167  0.000  0.934
 
band  13 # energy    2.10233952 # occ.  1.00000000
 
ion      s     py     pz     px    dxy    dyz    dz2    dxz    dx2    tot
  1  0.000  0.002  0.004  0.005  0.000  0.000  0.000  0.000  0.000  0.011
  2  0.000  0.000  0.000  0.000  0.052  0.060  0.103  0.024  0.077  0.316
  3  0.000  0.055  0.119  0.139  0.000  0.000  0.000  0.000  0.000  0.313
  4  0.000  0.055  0.119  0.139  0.000  0.000  0.000  0.000  0.000  0.313
tot  0.000  0.112  0.243  0.282  0.052  0.060  0.103  0.024  0.077  0.953
 
band  14 # energy    2.10233952 # occ.  1.00000000
 
ion      s     py     pz     px    dxy    dyz    dz2    dxz    dx2    tot
  1  0.000  0.005  0.003  0.002  0.000  0.000  0.000  0.000  0.000  0.011
  2  0.000  0.000  0.000  0.000  0.039  0.030  0.077  0.067  0.103  0.316
  3  0.000  0.154  0.089  0.070  0.000  0.000  0.000  0.000  0.000  0.313
  4  0.000  0.154  0.089  0.070  0.000  0.000  0.000  0.000  0.000  0.313
tot  0.000  0.313  0.182  0.143  0.039  0.030  0.077  0.067  0.103  0.953
 
band  15 # energy    3.55326027 # occ.  1.00000000
 
ion      s     py     pz     px    dxy    dyz    dz2    dxz    dx2    tot
  1  0.000  0.000  0.000  0.000  0.007  0.012  0.071  0.005  0.089  0.184
  2  0.000  0.005  0.006  0.010  0.000  0.000  0.000  0.000  0.000  0.020
  3  0.000  0.085  0.112  0.180  0.000  0.000  0.000  0.000  0.000  0.376
  4  0.000  0.085  0.112  0.180  0.000  0.000  0.000  0.000  0.000  0.376
tot  0.000  0.174  0.229  0.369  0.007  0.012  0.071  0.005  0.089  0.956
 
band  16 # energy    3.55326027 # occ.  1.00000000
 
ion      s     py     pz     px    dxy    dyz    dz2    dxz    dx2    tot
  1  0.000  0.000  0.000  0.000  0.009  0.005  0.089  0.011  0.071  0.184
  2  0.000  0.009  0.007  0.004  0.000  0.000  0.000  0.000  0.000  0.020
  3  0.000  0.166  0.139  0.071  0.000  0.000  0.000  0.000  0.000  0.376
  4  0.000  0.166  0.139  0.071  0.000  0.000  0.000  0.000  0.000  0.376
tot  0.000  0.341  0.286  0.146  0.009  0.005  0.089  0.011  0.071  0.956
 
band  17 # energy    7.46737867 # occ.  0.00000000
 
ion      s     py     pz     px    dxy    dyz    dz2    dxz    dx2    tot
  1  0.000  0.002  0.003  0.009  0.000  0.000  0.000  0.000  0.000  0.013
  2  0.000  0.000  0.000  0.000  0.000  0.001  0.262  0.000  0.526  0.789
  3  0.000  0.010  0.019  0.055  0.000  0.000  0.000  0.000  0.000  0.084
  4  0.000  0.010  0.019  0.055  0.000  0.000  0.000  0.000  0.000  0.084
tot  0.000  0.021  0.040  0.119  0.000  0.001  0.262  0.000  0.526  0.970
 
band  18 # energy    7.46737867 # occ.  0.00000000
 
ion      s     py     pz     px    dxy    dyz    dz2    dxz    dx2    tot
  1  0.000  0.007  0.006  0.000  0.000  0.000  0.000  0.000  0.000  0.013
  2  0.000  0.000  0.000  0.000  0.001  0.000  0.526  0.001  0.262  0.789
  3  0.000  0.046  0.037  0.000  0.000  0.000  0.000  0.000  0.000  0.084
  4  0.000  0.046  0.037  0.000  0.000  0.000  0.000  0.000  0.000  0.084
tot  0.000  0.099  0.080  0.001  0.001  0.000  0.526  0.001  0.262  0.970
 
band  19 # energy    9.70884117 # occ.  0.00000000
 
ion      s     py     pz     px    dxy    dyz    dz2    dxz    dx2    tot
  1  0.218  0.000  0.000  0.000  0.002  0.002  0.000  0.002  0.000  0.225
  2  0.000  0.038  0.038  0.038  0.000  0.000  0.000  0.000  0.000  0.113
  3  0.089  0.035  0.035  0.035  0.000  0.000  0.000  0.000  0.000  0.194
  4  0.089  0.035  0.035  0.035  0.000  0.000  0.000  0.000  0.000  0.194
tot  0.395  0.108  0.108  0.108  0.002  0.002  0.000  0.002  0.000  0.726
 
band  20 # energy    9.81630684 # occ.  0.00000000
 
ion      s     py     pz     px    dxy    dyz    dz2    dxz    dx2    tot
  1  0.000  0.040  0.040  0.040  0.000  0.000  0.000  0.000  0.000  0.120
  2  0.212  0.000  0.000  0.000  0.003  0.003  0.000  0.003  0.000  0.220
  3  0.090  0.034  0.034  0.034  0.000  0.000  0.000  0.000  0.000  0.191
  4  0.090  0.034  0.034  0.034  0.000  0.000  0.000  0.000  0.000  0.191
tot  0.391  0.107  0.107  0.107  0.003  0.003  0.000  0.003  0.000  0.721
 
# of k-points:   13         # of bands:  20         # of ions:   4

 k-point    1 :    0.00000000 0.00000000 0.00000000     weight = 0.01562500

band   1 # energy  -14.46950999 # occ.  1.00000000
 
ion      s     py     pz     px    dxy    dyz    dz2    dxz    dx2    tot
  1  0.064  0.000  0.000  0.000  0.000  0.000  0.000  0.000  0.000  0.064
  2  0.066  0.000  0.000  0.000  0.000  0.000  0.000  0.000  0.000  0.066
  3  0.384  0.000  0.000  0.000  0.000  0.000  0.000  0.000  0.000  0.384
  4  0.384  0.000  0.000  0.000  0.000  0.000  0.000  0.000  0.000  0.384
tot  0.898  0.000  0.000  0.000  0.000  0.000  0.000  0.000  0.000  0.898
 
band   2 # energy  -12.93168016 # occ.  1.00000000
 
ion      s     py     pz     px    dxy    dyz    dz2    dxz    dx2    tot
  1  0.000  0.011  0.011  0.011  0.000  0.000  0.000  0.000  0.000  0.033
  2  0.000  0.011  0.011  0.011  0.000  0.000  0.000  0.000  0.000  0.033
  3  0.435  0.000  0.000  0.000  0.000  0.000  0.000  0.000  0.000  0.435
  4  0.435  0.000  0.000  0.000  0.000  0.000  0.000  0.000  0.000  0.435
tot  0.871  0.022  0.022  0.022  0.000  0.000  0.000  0.000  0.000  0.937
 
band   3 # energy   -3.57954707 # occ.  1.00000000
 
ion      s     py     pz     px    dxy    dyz    dz2    dxz    dx2    tot
  1  0.078  0.000  0.000  0.000  0.038  0.038  0.000  0.038  0.000  0.191
  2  0.079  0.000  0.000  0.000  0.072  0.072  0.000  0.072  0.000  0.294
  3  0.000  0.057  0.057  0.057  0.000  0.000  0.000  0.000  0.000  0.171
  4  0.000  0.057  0.057  0.057  0.000  0.000  0.000  0.000  0.000  0.171
tot  0.156  0.114  0.114  0.114  0.110  0.110  0.000  0.110  0.000  0.827
 
band   4 # energy   -2.75679638 # occ.  1.00000000
 
ion      s     py     pz     px    dxy    dyz    dz2    dxz    dx2    tot
  1  0.000  0.000  0.000  0.000  0.001  0.004  0.001  0.006  0.008  0.020
  2  0.000  0.000  0.000  0.000  0.002  0.011  0.075  0.015  0.708  0.810
  3  0.000  0.039  0.005  0.028  0.000  0.000  0.000  0.000  0.000  0.071
  4  0.000  0.039  0.005  0.028  0.000  0.000  0.000  0.000  0.000  0.071
tot  0.000  0.077  0.009  0.056  0.002  0.015  0.075  0.021  0.715  0.972
 
band   5 # energy   -2.75679638 # occ.  1.00000000
 
ion      s     py     pz     px    dxy    dyz    dz2    dxz    dx2    tot
  1  0.000  0.000  0.000  0.000  0.007  0.003  0.008  0.001  0.001  0.020
  2  0.000  0.000  0.000  0.000  0.017  0.008  0.708  0.003  0.075  0.810
  3  0.000  0.009  0.043  0.019  0.000  0.000  0.000  0.000  0.000  0.071
  4  0.000  0.009  0.043  0.019  0.000  0.000  0.000  0.000  0.000  0.071
tot  0.000  0.017  0.086  0.039  0.024  0.011  0.715  0.005  0.075  0.972
 
band   6 # energy   -0.93119530 # occ.  1.00000000
 
ion      s     py     pz     px    dxy    dyz    dz2    dxz    dx2    tot
  1  0.000  0.000  0.000  0.000  0.003  0.014  0.000  0.021  0.001  0.039
  2  0.000  0.000  0.000  0.000  0.067  0.332  0.004  0.492  0.030  0.924
  3  0.000  0.000  0.000  0.000  0.000  0.000  0.000  0.000  0.000  0.001
  4  0.000  0.000  0.000  0.000  0.000  0.000  0.000  0.000  0.000  0.001
tot  0.000  0.001  0.000  0.001  0.070  0.346  0.004  0.513  0.031  0.965
 
band   7 # energy   -0.93119530 # occ.  1.00000000
 
ion      s     py     pz     px    dxy    dyz    dz2    dxz    dx2    tot
  1  0.000  0.000  0.000  0.000  0.023  0.011  0.001  0.004  0.000  0.039
  2  0.000  0.000  0.000  0.000  0.527  0.262  0.030  0.102  0.004  0.924
  3  0.000  0.000  0.000  0.000  0.000  0.000  0.000  0.000  0.000  0.001
  4  0.000  0.000  0.000  0.000  0.000  0.000  0.000  0.000  0.000  0.001
tot  0.000  0.000  0.001  0.000  0.549  0.273  0.031  0.106  0.004  0.965
 
band   8 # energy   -0.65834245 # occ.  1.00000000
 
ion      s     py     pz     px    dxy    dyz    dz2    dxz    dx2    tot
  1  0.006  0.000  0.000  0.000  0.107  0.107  0.000  0.107  0.000  0.326
  2  0.006  0.000  0.000  0.000  0.199  0.199  0.000  0.199  0.000  0.601
  3  0.000  0.004  0.004  0.004  0.000  0.000  0.000  0.000  0.000  0.013
  4  0.000  0.004  0.004  0.004  0.000  0.000  0.000  0.000  0.000  0.013
tot  0.011  0.009  0.009  0.009  0.305  0.305  0.000  0.305  0.000  0.954
 
band   9 # energy    0.22731841 # occ.  1.00000000
 
ion      s     py     pz     px    dxy    dyz    dz2    dxz    dx2    tot
  1  0.000  0.000  0.000  0.000  0.082  0.270  0.001  0.504  0.008  0.865
  2  0.000  0.000  0.000  0.000  0.002  0.007  0.008  0.013  0.047  0.077
  3  0.000  0.007  0.001  0.004  0.000  0.000  0.000  0.000  0.000  0.013
  4  0.000  0.007  0.001  0.004  0.000  0.000  0.000  0.000  0.000  0.013
tot  0.000  0.015  0.002  0.008  0.084  0.277  0.009  0.516  0.055  0.967
 
band  10 # energy    0.22731842 # occ.  1.00000000
 
ion      s     py     pz     px    dxy    dyz    dz2    dxz    dx2    tot
  1  0.000  0.000  0.000  0.000  0.489  0.300  0.008  0.067  0.001  0.865
  2  0.000  0.000  0.000  0.000  0.012  0.008  0.047  0.002  0.008  0.077
  3  0.000  0.001  0.007  0.004  0.000  0.000  0.000  0.000  0.000  0.013
  4  0.000  0.001  0.007  0.004  0.000  0.000  0.000  0.000  0.000  0.013
tot  0.000  0.002  0.015  0.009  0.501  0.308  0.055  0.068  0.009  0.967
 
band  11 # energy    1.46284256 # occ.  1.00000000
 
ion      s     py     pz     px    dxy    dyz    dz2    dxz    dx2    tot
  1  0.036  0.000  0.000  0.000  0.181  0.181  0.000  0.181  0.000  0.579
  2  0.037  0.000  0.000  0.000  0.056  0.056  0.000  0.056  0.000  0.206
  3  0.000  0.031  0.031  0.031  0.000  0.000  0.000  0.000  0.000  0.094
  4  0.000  0.031  0.031  0.031  0.000  0.000  0.000  0.000  0.000  0.094
tot  0.073  0.063  0.063  0.063  0.238  0.238  0.000  0.238  0.000  0.974
 
band  12 # energy    2.72396330 # occ.  1.00000000
 
ion      s     py     pz     px    dxy    dyz    dz2    dxz    dx2    tot
  1  0.000  0.000  0.000  0.000  0.038  0.022  0.191  0.006  0.028  0.285
  2  0.000  0.000  0.000  0.000  0.019  0.011  0.109  0.003  0.016  0.158
  3  0.000  0.023  0.152  0.087  0.000  0.000  0.000  0.000  0.000  0.262
  4  0.000  0.023  0.152  0.087  0.000  0.000  0.000  0.000  0.000  0.262
tot  0.000  0.046  0.305  0.174  0.057  0.032  0.301  0.009  0.045  0.968
 
band  13 # energy    2.72396331 # occ.  1.00000000
 
ion      s     py     pz     px    dxy    dyz    dz2    dxz    dx2    tot
  1  0.000  0.000  0.000  0.000  0.006  0.022  0.028  0.038  0.191  0.285
  2  0.000  0.000  0.000  0.000  0.003  0.011  0.016  0.019  0.109  0.158
  3  0.000  0.152  0.023  0.088  0.000  0.000  0.000  0.000  0.000  0.262
  4  0.000  0.152  0.023  0.088  0.000  0.000  0.000  0.000  0.000  0.262
tot  0.000  0.304  0.045  0.176  0.008  0.033  0.045  0.057  0.301  0.968
 
band  14 # energy    2.73306234 # occ.  1.00000000
 
ion      s     py     pz     px    dxy    dyz    dz2    dxz    dx2    tot
  1  0.000  0.012  0.003  0.004  0.000  0.000  0.000  0.000  0.000  0.019
  2  0.000  0.012  0.004  0.005  0.000  0.000  0.000  0.000  0.000  0.020
  3  0.000  0.263  0.080  0.100  0.000  0.000  0.000  0.000  0.000  0.443
  4  0.000  0.263  0.080  0.100  0.000  0.000  0.000  0.000  0.000  0.443
tot  0.000  0.550  0.166  0.209  0.000  0.000  0.000  0.000  0.000  0.925
 
band  15 # energy    2.73306234 # occ.  1.00000000
 
ion      s     py     pz     px    dxy    dyz    dz2    dxz    dx2    tot
  1  0.000  0.001  0.009  0.009  0.000  0.000  0.000  0.000  0.000  0.019
  2  0.000  0.001  0.010  0.009  0.000  0.000  0.000  0.000  0.000  0.020
  3  0.000  0.032  0.215  0.195  0.000  0.000  0.000  0.000  0.000  0.443
  4  0.000  0.032  0.215  0.195  0.000  0.000  0.000  0.000  0.000  0.443
tot  0.000  0.067  0.450  0.408  0.000  0.000  0.000  0.000  0.000  0.925
 
band  16 # energy    2.73760939 # occ.  1.00000000
 
ion      s     py     pz     px    dxy    dyz    dz2    dxz    dx2    tot
  1  0.000  0.007  0.007  0.007  0.000  0.000  0.000  0.000  0.000  0.020
  2  0.000  0.007  0.007  0.007  0.000  0.000  0.000  0.000  0.000  0.020
  3  0.000  0.148  0.148  0.148  0.000  0.000  0.000  0.000  0.000  0.443
  4  0.000  0.148  0.148  0.148  0.000  0.000  0.000  0.000  0.000  0.443
tot  0.000  0.308  0.308  0.308  0.000  0.000  0.000  0.000  0.000  0.925
 
band  17 # energy    7.04766537 # occ.  0.00000000
 
ion      s     py     pz     px    dxy    dyz    dz2    dxz    dx2    tot
  1  0.201  0.000  0.000  0.000  0.000  0.000  0.000  0.000  0.000  0.201
  2  0.208  0.000  0.000  0.000  0.000  0.000  0.000  0.000  0.000  0.208
  3  0.145  0.000  0.000  0.000  0.000  0.000  0.000  0.000  0.000  0.145
  4  0.145  0.000  0.000  0.000  0.000  0.000  0.000  0.000  0.000  0.145
tot  0.698  0.000  0.000  0.000  0.000  0.000  0.000  0.000  0.000  0.698
 
band  18 # energy    7.62809546 # occ.  0.00000000
 
ion      s     py     pz     px    dxy    dyz    dz2    dxz    dx2    tot
  1  0.000  0.000  0.000  0.000  0.000  0.000  0.165  0.001  0.588  0.753
  2  0.000  0.000  0.000  0.000  0.000  0.000  0.008  0.001  0.028  0.037
  3  0.000  0.064  0.014  0.018  0.000  0.000  0.000  0.000  0.000  0.096
  4  0.000  0.064  0.014  0.018  0.000  0.000  0.000  0.000  0.000  0.096
tot  0.000  0.127  0.028  0.036  0.000  0.000  0.173  0.001  0.616  0.982
 
band  19 # energy    7.62809546 # occ.  0.00000000
 
ion      s     py     pz     px    dxy    dyz    dz2    dxz    dx2    tot
  1  0.000  0.000  0.000  0.000  0.001  0.000  0.588  0.000  0.165  0.753
  2  0.000  0.000  0.000  0.000  0.000  0.000  0.028  0.000  0.008  0.037
  3  0.000  0.000  0.050  0.046  0.000  0.000  0.000  0.000  0.000  0.096
  4  0.000  0.000  0.050  0.046  0.000  0.000  0.000  0.000  0.000  0.096
tot  0.000  0.000  0.100  0.091  0.001  0.001  0.616  0.000  0.173  0.982
 
band  20 # energy   10.88636441 # occ.  0.00000000
 
ion      s     py     pz     px    dxy    dyz    dz2    dxz    dx2    tot
  1  0.000  0.057  0.057  0.057  0.000  0.000  0.000  0.000  0.000  0.172
  2  0.000  0.060  0.060  0.060  0.000  0.000  0.000  0.000  0.000  0.179
  3  0.065  0.000  0.000  0.000  0.000  0.000  0.000  0.000  0.000  0.065
  4  0.065  0.000  0.000  0.000  0.000  0.000  0.000  0.000  0.000  0.065
tot  0.131  0.117  0.117  0.117  0.000  0.000  0.000  0.000  0.000  0.482
 

 k-point    2 :    0.25000000-0.00000000-0.00000000     weight = 0.09375000

band   1 # energy  -13.83773257 # occ.  1.00000000
 
ion      s     py     pz     px    dxy    dyz    dz2    dxz    dx2    tot
  1  0.040  0.002  0.002  0.009  0.000  0.000  0.000  0.000  0.001  0.053
  2  0.041  0.001  0.001  0.009  0.000  0.000  0.001  0.000  0.003  0.057
  3  0.401  0.000  0.000  0.001  0.000  0.000  0.000  0.000  0.000  0.402
  4  0.401  0.000  0.000  0.001  0.000  0.000  0.000  0.000  0.000  0.402
tot  0.884  0.003  0.003  0.020  0.000  0.000  0.001  0.000  0.004  0.915
 
band   2 # energy  -12.87639704 # occ.  1.00000000
 
ion      s     py     pz     px    dxy    dyz    dz2    dxz    dx2    tot
  1  0.000  0.009  0.009  0.002  0.000  0.000  0.003  0.000  0.009  0.032
  2  0.001  0.010  0.010  0.001  0.000  0.000  0.006  0.000  0.019  0.047
  3  0.435  0.000  0.000  0.000  0.000  0.000  0.000  0.000  0.000  0.435
  4  0.435  0.000  0.000  0.000  0.000  0.000  0.000  0.000  0.000  0.435
tot  0.871  0.019  0.019  0.004  0.000  0.000  0.009  0.000  0.028  0.950
 
band   3 # energy   -3.01274021 # occ.  1.00000000
 
ion      s     py     pz     px    dxy    dyz    dz2    dxz    dx2    tot
  1  0.043  0.003  0.003  0.001  0.001  0.040  0.000  0.001  0.000  0.092
  2  0.013  0.003  0.003  0.000  0.011  0.099  0.107  0.011  0.320  0.565
  3  0.001  0.051  0.051  0.024  0.000  0.000  0.000  0.000  0.000  0.126
  4  0.001  0.051  0.051  0.024  0.000  0.000  0.000  0.000  0.000  0.126
tot  0.059  0.107  0.107  0.049  0.011  0.139  0.107  0.011  0.320  0.910
 
band   4 # energy   -2.64216656 # occ.  1.00000000
 
ion      s     py     pz     px    dxy    dyz    dz2    dxz    dx2    tot
  1  0.000  0.002  0.002  0.000  0.003  0.000  0.003  0.003  0.001  0.014
  2  0.000  0.000  0.000  0.000  0.000  0.000  0.614  0.000  0.205  0.820
  3  0.000  0.035  0.035  0.000  0.000  0.000  0.000  0.000  0.000  0.071
  4  0.000  0.035  0.035  0.000  0.000  0.000  0.000  0.000  0.000  0.071
tot  0.000  0.073  0.073  0.000  0.003  0.000  0.617  0.003  0.206  0.975
 
band   5 # energy   -2.28930570 # occ.  1.00000000
 
ion      s     py     pz     px    dxy    dyz    dz2    dxz    dx2    tot
  1  0.008  0.000  0.000  0.018  0.042  0.017  0.001  0.042  0.003  0.131
  2  0.033  0.000  0.000  0.024  0.067  0.055  0.061  0.067  0.182  0.489
  3  0.003  0.012  0.012  0.108  0.000  0.000  0.000  0.000  0.000  0.135
  4  0.003  0.012  0.012  0.108  0.000  0.000  0.000  0.000  0.000  0.135
tot  0.046  0.024  0.024  0.258  0.109  0.071  0.062  0.109  0.185  0.890
 
band   6 # energy   -1.60229351 # occ.  1.00000000
 
ion      s     py     pz     px    dxy    dyz    dz2    dxz    dx2    tot
  1  0.005  0.003  0.003  0.005  0.004  0.002  0.003  0.004  0.009  0.037
  2  0.017  0.000  0.000  0.005  0.183  0.302  0.005  0.183  0.015  0.710
  3  0.004  0.016  0.016  0.049  0.000  0.000  0.000  0.000  0.000  0.085
  4  0.004  0.016  0.016  0.049  0.000  0.000  0.000  0.000  0.000  0.085
tot  0.030  0.034  0.034  0.108  0.186  0.304  0.008  0.186  0.024  0.916
 
band   7 # energy   -0.87147174 # occ.  1.00000000
 
ion      s     py     pz     px    dxy    dyz    dz2    dxz    dx2    tot
  1  0.000  0.001  0.001  0.000  0.019  0.000  0.003  0.019  0.001  0.043
  2  0.000  0.002  0.002  0.000  0.431  0.000  0.000  0.431  0.000  0.867
  3  0.000  0.013  0.013  0.000  0.000  0.000  0.000  0.000  0.000  0.027
  4  0.000  0.013  0.013  0.000  0.000  0.000  0.000  0.000  0.000  0.027
tot  0.000  0.029  0.029  0.000  0.450  0.000  0.004  0.450  0.001  0.964
 
band   8 # energy   -0.68592395 # occ.  1.00000000
 
ion      s     py     pz     px    dxy    dyz    dz2    dxz    dx2    tot
  1  0.005  0.000  0.000  0.003  0.008  0.457  0.005  0.008  0.014  0.500
  2  0.011  0.003  0.003  0.002  0.030  0.188  0.006  0.030  0.018  0.291
  3  0.001  0.023  0.023  0.020  0.000  0.000  0.000  0.000  0.000  0.067
  4  0.001  0.023  0.023  0.020  0.000  0.000  0.000  0.000  0.000  0.067
tot  0.018  0.049  0.049  0.046  0.038  0.645  0.011  0.038  0.032  0.925
 
band   9 # energy   -0.56591000 # occ.  1.00000000
 
ion      s     py     pz     px    dxy    dyz    dz2    dxz    dx2    tot
  1  0.002  0.001  0.001  0.009  0.190  0.008  0.000  0.190  0.001  0.404
  2  0.008  0.002  0.002  0.007  0.048  0.198  0.019  0.048  0.057  0.389
  3  0.004  0.017  0.017  0.034  0.000  0.000  0.000  0.000  0.000  0.072
  4  0.004  0.017  0.017  0.034  0.000  0.000  0.000  0.000  0.000  0.072
tot  0.017  0.038  0.038  0.083  0.239  0.206  0.020  0.239  0.059  0.937
 
band  10 # energy    0.43817289 # occ.  1.00000000
 
ion      s     py     pz     px    dxy    dyz    dz2    dxz    dx2    tot
  1  0.000  0.001  0.001  0.000  0.429  0.000  0.000  0.429  0.000  0.861
  2  0.000  0.001  0.001  0.000  0.032  0.000  0.013  0.032  0.004  0.082
  3  0.000  0.008  0.008  0.000  0.000  0.000  0.000  0.000  0.000  0.016
  4  0.000  0.008  0.008  0.000  0.000  0.000  0.000  0.000  0.000  0.016
tot  0.000  0.018  0.018  0.000  0.461  0.000  0.013  0.461  0.004  0.974
 
band  11 # energy    0.92933837 # occ.  1.00000000
 
ion      s     py     pz     px    dxy    dyz    dz2    dxz    dx2    tot
  1  0.013  0.001  0.001  0.009  0.010  0.112  0.013  0.010  0.040  0.210
  2  0.052  0.000  0.000  0.005  0.080  0.056  0.006  0.080  0.017  0.294
  3  0.012  0.022  0.022  0.154  0.000  0.000  0.000  0.000  0.000  0.211
  4  0.012  0.022  0.022  0.154  0.000  0.000  0.000  0.000  0.000  0.211
tot  0.090  0.046  0.046  0.322  0.089  0.168  0.019  0.089  0.056  0.926
 
band  12 # energy    1.33280481 # occ.  1.00000000
 
ion      s     py     pz     px    dxy    dyz    dz2    dxz    dx2    tot
  1  0.060  0.000  0.000  0.004  0.061  0.276  0.000  0.061  0.000  0.463
  2  0.009  0.002  0.002  0.004  0.061  0.047  0.006  0.061  0.018  0.211
  3  0.003  0.047  0.047  0.044  0.000  0.000  0.000  0.000  0.000  0.140
  4  0.003  0.047  0.047  0.044  0.000  0.000  0.000  0.000  0.000  0.140
tot  0.076  0.096  0.096  0.096  0.121  0.323  0.006  0.121  0.018  0.954
 
band  13 # energy    1.93086717 # occ.  1.00000000
 
ion      s     py     pz     px    dxy    dyz    dz2    dxz    dx2    tot
  1  0.000  0.000  0.000  0.000  0.006  0.000  0.126  0.006  0.042  0.181
  2  0.000  0.013  0.013  0.000  0.023  0.000  0.047  0.023  0.016  0.134
  3  0.000  0.157  0.157  0.000  0.000  0.000  0.000  0.000  0.000  0.315
  4  0.000  0.157  0.157  0.000  0.000  0.000  0.000  0.000  0.000  0.315
tot  0.000  0.328  0.328  0.000  0.029  0.000  0.173  0.029  0.058  0.945
 
band  14 # energy    2.03127455 # occ.  1.00000000
 
ion      s     py     pz     px    dxy    dyz    dz2    dxz    dx2    tot
  1  0.022  0.000  0.000  0.017  0.173  0.046  0.002  0.173  0.006  0.440
  2  0.009  0.003  0.003  0.020  0.004  0.002  0.011  0.004  0.034  0.091
  3  0.008  0.036  0.036  0.127  0.000  0.000  0.000  0.000  0.000  0.207
  4  0.008  0.036  0.036  0.127  0.000  0.000  0.000  0.000  0.000  0.207
tot  0.046  0.075  0.075  0.292  0.178  0.048  0.014  0.178  0.041  0.946
 
band  15 # energy    2.82726189 # occ.  1.00000000
 
ion      s     py     pz     px    dxy    dyz    dz2    dxz    dx2    tot
  1  0.004  0.010  0.010  0.002  0.003  0.002  0.009  0.003  0.027  0.072
  2  0.002  0.005  0.005  0.004  0.010  0.019  0.029  0.010  0.087  0.170
  3  0.004  0.126  0.126  0.095  0.000  0.000  0.000  0.000  0.000  0.350
  4  0.004  0.126  0.126  0.095  0.000  0.000  0.000  0.000  0.000  0.350
tot  0.013  0.266  0.266  0.196  0.014  0.021  0.038  0.014  0.114  0.943
 
band  16 # energy    3.10461861 # occ.  1.00000000
 
ion      s     py     pz     px    dxy    dyz    dz2    dxz    dx2    tot
  1  0.000  0.017  0.017  0.000  0.033  0.000  0.009  0.033  0.003  0.113
  2  0.000  0.002  0.002  0.000  0.005  0.000  0.085  0.005  0.028  0.128
  3  0.000  0.177  0.177  0.000  0.000  0.000  0.000  0.000  0.000  0.355
  4  0.000  0.177  0.177  0.000  0.000  0.000  0.000  0.000  0.000  0.355
tot  0.000  0.374  0.374  0.000  0.038  0.000  0.094  0.038  0.031  0.950
 
band  17 # energy    7.22502558 # occ.  0.00000000
 
ion      s     py     pz     px    dxy    dyz    dz2    dxz    dx2    tot
  1  0.005  0.001  0.001  0.002  0.000  0.001  0.197  0.000  0.591  0.798
  2  0.037  0.003  0.003  0.001  0.000  0.000  0.000  0.000  0.000  0.045
  3  0.021  0.010  0.010  0.010  0.000  0.000  0.000  0.000  0.000  0.051
  4  0.021  0.010  0.010  0.010  0.000  0.000  0.000  0.000  0.000  0.051
tot  0.085  0.024  0.024  0.023  0.000  0.001  0.197  0.000  0.591  0.945
 
band  18 # energy    7.56536564 # occ.  0.00000000
 
ion      s     py     pz     px    dxy    dyz    dz2    dxz    dx2    tot
  1  0.000  0.000  0.000  0.000  0.000  0.000  0.605  0.000  0.202  0.807
  2  0.000  0.005  0.005  0.000  0.000  0.000  0.012  0.000  0.004  0.027
  3  0.000  0.036  0.036  0.000  0.000  0.000  0.000  0.000  0.000  0.072
  4  0.000  0.036  0.036  0.000  0.000  0.000  0.000  0.000  0.000  0.072
tot  0.000  0.077  0.077  0.000  0.000  0.000  0.617  0.000  0.206  0.977
 
band  19 # energy   10.05241163 # occ.  0.00000000
 
ion      s     py     pz     px    dxy    dyz    dz2    dxz    dx2    tot
  1  0.117  0.006  0.006  0.017  0.000  0.000  0.014  0.000  0.041  0.202
  2  0.107  0.004  0.004  0.023  0.000  0.000  0.002  0.000  0.007  0.149
  3  0.074  0.006  0.006  0.130  0.000  0.000  0.000  0.000  0.000  0.216
  4  0.074  0.006  0.006  0.130  0.000  0.000  0.000  0.000  0.000  0.216
tot  0.373  0.021  0.021  0.300  0.001  0.001  0.016  0.001  0.048  0.783
 
band  20 # energy   13.43163179 # occ.  0.00000000
 
ion      s     py     pz     px    dxy    dyz    dz2    dxz    dx2    tot
  1  0.001  0.065  0.065  0.015  0.002  0.022  0.002  0.002  0.006  0.179
  2  0.001  0.067  0.067  0.013  0.002  0.023  0.001  0.002  0.004  0.179
  3  0.037  0.020  0.020  0.024  0.000  0.000  0.000  0.000  0.000  0.102
  4  0.037  0.020  0.020  0.024  0.000  0.000  0.000  0.000  0.000  0.102
tot  0.076  0.173  0.173  0.076  0.003  0.045  0.003  0.003  0.010  0.562
 

 k-point    3 :    0.50000000-0.00000000-0.00000000     weight = 0.04687500

band   1 # energy  -13.08644173 # occ.  1.00000000
 
ion      s     py     pz     px    dxy    dyz    dz2    dxz    dx2    tot
  1  0.000  0.010  0.010  0.012  0.000  0.000  0.000  0.000  0.000  0.031
  2  0.009  0.000  0.000  0.000  0.000  0.000  0.014  0.000  0.043  0.066
  3  0.426  0.000  0.000  0.000  0.000  0.000  0.000  0.000  0.000  0.426
  4  0.426  0.000  0.000  0.000  0.000  0.000  0.000  0.000  0.000  0.426
tot  0.861  0.010  0.010  0.012  0.000  0.000  0.014  0.000  0.043  0.951
 
band   2 # energy  -12.82942042 # occ.  1.00000000
 
ion      s     py     pz     px    dxy    dyz    dz2    dxz    dx2    tot
  1  0.009  0.000  0.000  0.000  0.000  0.000  0.007  0.000  0.020  0.036
  2  0.000  0.011  0.011  0.013  0.000  0.000  0.000  0.000  0.000  0.035
  3  0.437  0.000  0.000  0.000  0.000  0.000  0.000  0.000  0.000  0.438
  4  0.437  0.000  0.000  0.000  0.000  0.000  0.000  0.000  0.000  0.438
tot  0.884  0.011  0.011  0.014  0.000  0.000  0.007  0.000  0.020  0.946
 
band   3 # energy   -2.84351489 # occ.  1.00000000
 
ion      s     py     pz     px    dxy    dyz    dz2    dxz    dx2    tot
  1  0.000  0.000  0.000  0.052  0.000  0.000  0.000  0.000  0.000  0.052
  2  0.037  0.000  0.000  0.000  0.074  0.010  0.091  0.074  0.274  0.559
  3  0.002  0.001  0.001  0.138  0.000  0.000  0.000  0.000  0.000  0.143
  4  0.002  0.001  0.001  0.138  0.000  0.000  0.000  0.000  0.000  0.143
tot  0.040  0.003  0.003  0.328  0.074  0.010  0.091  0.074  0.274  0.897
 
band   4 # energy   -2.63068930 # occ.  1.00000000
 
ion      s     py     pz     px    dxy    dyz    dz2    dxz    dx2    tot
  1  0.000  0.004  0.004  0.000  0.000  0.000  0.000  0.000  0.000  0.008
  2  0.000  0.000  0.000  0.000  0.014  0.000  0.592  0.014  0.197  0.817
  3  0.000  0.037  0.037  0.000  0.000  0.000  0.000  0.000  0.000  0.075
  4  0.000  0.037  0.037  0.000  0.000  0.000  0.000  0.000  0.000  0.075
tot  0.000  0.078  0.078  0.000  0.014  0.000  0.592  0.014  0.197  0.974
 
band   5 # energy   -2.46656606 # occ.  1.00000000
 
ion      s     py     pz     px    dxy    dyz    dz2    dxz    dx2    tot
  1  0.000  0.012  0.012  0.000  0.000  0.000  0.000  0.000  0.000  0.024
  2  0.034  0.000  0.000  0.000  0.034  0.349  0.051  0.034  0.154  0.656
  3  0.006  0.052  0.052  0.000  0.000  0.000  0.000  0.000  0.000  0.110
  4  0.006  0.052  0.052  0.000  0.000  0.000  0.000  0.000  0.000  0.110
tot  0.046  0.116  0.116  0.000  0.034  0.349  0.051  0.034  0.154  0.900
 
band   6 # energy   -2.22427741 # occ.  1.00000000
 
ion      s     py     pz     px    dxy    dyz    dz2    dxz    dx2    tot
  1  0.090  0.000  0.000  0.000  0.084  0.125  0.001  0.084  0.002  0.386
  2  0.000  0.009  0.009  0.039  0.000  0.000  0.000  0.000  0.000  0.057
  3  0.002  0.045  0.045  0.104  0.000  0.000  0.000  0.000  0.000  0.197
  4  0.002  0.045  0.045  0.104  0.000  0.000  0.000  0.000  0.000  0.197
tot  0.094  0.099  0.099  0.248  0.084  0.125  0.001  0.084  0.002  0.835
 
band   7 # energy   -0.87464889 # occ.  1.00000000
 
ion      s     py     pz     px    dxy    dyz    dz2    dxz    dx2    tot
  1  0.000  0.000  0.000  0.002  0.000  0.000  0.000  0.000  0.000  0.003
  2  0.005  0.000  0.000  0.000  0.146  0.465  0.041  0.146  0.123  0.927
  3  0.006  0.004  0.004  0.004  0.000  0.000  0.000  0.000  0.000  0.018
  4  0.006  0.004  0.004  0.004  0.000  0.000  0.000  0.000  0.000  0.018
tot  0.017  0.008  0.008  0.010  0.146  0.465  0.041  0.146  0.123  0.964
 
band   8 # energy   -0.73222813 # occ.  1.00000000
 
ion      s     py     pz     px    dxy    dyz    dz2    dxz    dx2    tot
  1  0.000  0.000  0.000  0.000  0.030  0.456  0.011  0.030  0.033  0.561
  2  0.000  0.006  0.006  0.039  0.000  0.000  0.000  0.000  0.000  0.052
  3  0.001  0.020  0.020  0.099  0.000  0.000  0.000  0.000  0.000  0.140
  4  0.001  0.020  0.020  0.099  0.000  0.000  0.000  0.000  0.000  0.140
tot  0.002  0.046  0.046  0.237  0.030  0.456  0.011  0.030  0.033  0.892
 
band   9 # energy   -0.45625604 # occ.  1.00000000
 
ion      s     py     pz     px    dxy    dyz    dz2    dxz    dx2    tot
  1  0.000  0.001  0.001  0.000  0.000  0.000  0.000  0.000  0.000  0.001
  2  0.000  0.000  0.000  0.000  0.465  0.000  0.038  0.465  0.013  0.980
  3  0.000  0.001  0.001  0.000  0.000  0.000  0.000  0.000  0.000  0.002
  4  0.000  0.001  0.001  0.000  0.000  0.000  0.000  0.000  0.000  0.002
tot  0.000  0.003  0.003  0.000  0.465  0.000  0.038  0.465  0.013  0.986
 
band  10 # energy    0.28839868 # occ.  1.00000000
 
ion      s     py     pz     px    dxy    dyz    dz2    dxz    dx2    tot
  1  0.000  0.000  0.000  0.000  0.323  0.000  0.034  0.323  0.011  0.691
  2  0.000  0.010  0.010  0.000  0.000  0.000  0.000  0.000  0.000  0.020
  3  0.000  0.061  0.061  0.000  0.000  0.000  0.000  0.000  0.000  0.121
  4  0.000  0.061  0.061  0.000  0.000  0.000  0.000  0.000  0.000  0.121
tot  0.000  0.131  0.131  0.000  0.323  0.000  0.034  0.323  0.011  0.952
 
band  11 # energy    0.75691134 # occ.  1.00000000
 
ion      s     py     pz     px    dxy    dyz    dz2    dxz    dx2    tot
  1  0.000  0.003  0.003  0.019  0.000  0.000  0.000  0.000  0.000  0.026
  2  0.066  0.000  0.000  0.000  0.243  0.078  0.004  0.243  0.011  0.644
  3  0.003  0.036  0.036  0.066  0.000  0.000  0.000  0.000  0.000  0.141
  4  0.003  0.036  0.036  0.066  0.000  0.000  0.000  0.000  0.000  0.141
tot  0.072  0.075  0.075  0.151  0.243  0.078  0.004  0.243  0.011  0.952
 
band  12 # energy    1.24664236 # occ.  1.00000000
 
ion      s     py     pz     px    dxy    dyz    dz2    dxz    dx2    tot
  1  0.001  0.000  0.000  0.000  0.167  0.192  0.015  0.167  0.046  0.589
  2  0.000  0.005  0.005  0.030  0.000  0.000  0.000  0.000  0.000  0.040
  3  0.000  0.035  0.035  0.093  0.000  0.000  0.000  0.000  0.000  0.163
  4  0.000  0.035  0.035  0.093  0.000  0.000  0.000  0.000  0.000  0.163
tot  0.001  0.074  0.074  0.217  0.167  0.192  0.015  0.167  0.046  0.955
 
band  13 # energy    1.65969922 # occ.  1.00000000
 
ion      s     py     pz     px    dxy    dyz    dz2    dxz    dx2    tot
  1  0.054  0.000  0.000  0.000  0.216  0.177  0.002  0.216  0.006  0.672
  2  0.000  0.007  0.007  0.001  0.000  0.000  0.000  0.000  0.000  0.014
  3  0.001  0.066  0.066  0.007  0.000  0.000  0.000  0.000  0.000  0.140
  4  0.001  0.066  0.066  0.007  0.000  0.000  0.000  0.000  0.000  0.140
tot  0.056  0.139  0.139  0.014  0.216  0.177  0.002  0.216  0.006  0.965
 
band  14 # energy    1.75175305 # occ.  1.00000000
 
ion      s     py     pz     px    dxy    dyz    dz2    dxz    dx2    tot
  1  0.000  0.000  0.000  0.000  0.172  0.000  0.082  0.172  0.027  0.453
  2  0.000  0.016  0.016  0.000  0.000  0.000  0.000  0.000  0.000  0.032
  3  0.000  0.119  0.119  0.000  0.000  0.000  0.000  0.000  0.000  0.238
  4  0.000  0.119  0.119  0.000  0.000  0.000  0.000  0.000  0.000  0.238
tot  0.000  0.254  0.254  0.000  0.172  0.000  0.082  0.172  0.027  0.961
 
band  15 # energy    2.33097114 # occ.  1.00000000
 
ion      s     py     pz     px    dxy    dyz    dz2    dxz    dx2    tot
  1  0.000  0.013  0.013  0.045  0.000  0.000  0.000  0.000  0.000  0.071
  2  0.009  0.000  0.000  0.000  0.002  0.056  0.059  0.002  0.177  0.305
  3  0.009  0.078  0.078  0.109  0.000  0.000  0.000  0.000  0.000  0.274
  4  0.009  0.078  0.078  0.109  0.000  0.000  0.000  0.000  0.000  0.274
tot  0.028  0.169  0.169  0.263  0.002  0.056  0.059  0.002  0.177  0.924
 
band  16 # energy    2.94626761 # occ.  1.00000000
 
ion      s     py     pz     px    dxy    dyz    dz2    dxz    dx2    tot
  1  0.000  0.027  0.027  0.000  0.000  0.000  0.000  0.000  0.000  0.054
  2  0.000  0.000  0.000  0.000  0.017  0.000  0.140  0.017  0.047  0.221
  3  0.000  0.167  0.167  0.000  0.000  0.000  0.000  0.000  0.000  0.334
  4  0.000  0.167  0.167  0.000  0.000  0.000  0.000  0.000  0.000  0.334
tot  0.000  0.361  0.361  0.000  0.017  0.000  0.140  0.017  0.047  0.943
 
band  17 # energy    7.53302033 # occ.  0.00000000
 
ion      s     py     pz     px    dxy    dyz    dz2    dxz    dx2    tot
  1  0.000  0.000  0.000  0.000  0.000  0.000  0.634  0.000  0.211  0.846
  2  0.000  0.009  0.009  0.000  0.000  0.000  0.000  0.000  0.000  0.017
  3  0.000  0.028  0.028  0.000  0.000  0.000  0.000  0.000  0.000  0.056
  4  0.000  0.028  0.028  0.000  0.000  0.000  0.000  0.000  0.000  0.056
tot  0.000  0.064  0.064  0.000  0.000  0.000  0.634  0.000  0.211  0.975
 
band  18 # energy    7.57901665 # occ.  0.00000000
 
ion      s     py     pz     px    dxy    dyz    dz2    dxz    dx2    tot
  1  0.000  0.000  0.000  0.000  0.000  0.002  0.212  0.000  0.635  0.849
  2  0.000  0.005  0.005  0.014  0.000  0.000  0.000  0.000  0.000  0.023
  3  0.020  0.008  0.008  0.012  0.000  0.000  0.000  0.000  0.000  0.047
  4  0.020  0.008  0.008  0.012  0.000  0.000  0.000  0.000  0.000  0.047
tot  0.041  0.020  0.020  0.038  0.000  0.002  0.212  0.000  0.635  0.967
 
band  19 # energy   12.70803401 # occ.  0.00000000
 
ion      s     py     pz     px    dxy    dyz    dz2    dxz    dx2    tot
  1  0.000  0.059  0.059  0.008  0.000  0.000  0.000  0.000  0.000  0.126
  2  0.300  0.000  0.000  0.000  0.001  0.018  0.003  0.001  0.008  0.330
  3  0.035  0.006  0.006  0.080  0.000  0.000  0.000  0.000  0.000  0.127
  4  0.035  0.006  0.006  0.080  0.000  0.000  0.000  0.000  0.000  0.127
tot  0.370  0.071  0.071  0.169  0.001  0.018  0.003  0.001  0.008  0.711
 
band  20 # energy   12.94349414 # occ.  0.00000000
 
ion      s     py     pz     px    dxy    dyz    dz2    dxz    dx2    tot
  1  0.277  0.000  0.000  0.000  0.001  0.020  0.006  0.001  0.018  0.322
  2  0.000  0.062  0.062  0.010  0.000  0.000  0.000  0.000  0.000  0.133
  3  0.031  0.003  0.003  0.090  0.000  0.000  0.000  0.000  0.000  0.127
  4  0.031  0.003  0.003  0.090  0.000  0.000  0.000  0.000  0.000  0.127
tot  0.339  0.068  0.068  0.190  0.001  0.020  0.006  0.001  0.018  0.709
 

 k-point    4 :    0.25000000 0.25000000 0.00000000     weight = 0.09375000

band   1 # energy  -13.77168102 # occ.  1.00000000
 
ion      s     py     pz     px    dxy    dyz    dz2    dxz    dx2    tot
  1  0.037  0.005  0.005  0.005  0.000  0.000  0.000  0.000  0.000  0.052
  2  0.039  0.005  0.005  0.005  0.000  0.000  0.000  0.000  0.000  0.054
  3  0.403  0.000  0.000  0.000  0.000  0.000  0.000  0.000  0.000  0.404
  4  0.403  0.000  0.000  0.000  0.000  0.000  0.000  0.000  0.000  0.404
tot  0.883  0.011  0.011  0.011  0.000  0.000  0.000  0.000  0.000  0.915
 
band   2 # energy  -12.96001110 # occ.  1.00000000
 
ion      s     py     pz     px    dxy    dyz    dz2    dxz    dx2    tot
  1  0.005  0.005  0.006  0.005  0.000  0.000  0.013  0.000  0.000  0.034
  2  0.004  0.005  0.006  0.005  0.000  0.000  0.030  0.000  0.000  0.051
  3  0.432  0.000  0.000  0.000  0.000  0.000  0.000  0.000  0.000  0.432
  4  0.432  0.000  0.000  0.000  0.000  0.000  0.000  0.000  0.000  0.432
tot  0.872  0.010  0.013  0.010  0.000  0.000  0.043  0.000  0.000  0.948
 
band   3 # energy   -2.73846429 # occ.  1.00000000
 
ion      s     py     pz     px    dxy    dyz    dz2    dxz    dx2    tot
  1  0.011  0.000  0.020  0.000  0.003  0.013  0.000  0.013  0.000  0.060
  2  0.008  0.000  0.016  0.000  0.003  0.020  0.570  0.020  0.000  0.637
  3  0.002  0.005  0.105  0.005  0.000  0.000  0.000  0.000  0.000  0.116
  4  0.002  0.005  0.105  0.005  0.000  0.000  0.000  0.000  0.000  0.116
tot  0.022  0.009  0.246  0.009  0.006  0.033  0.570  0.033  0.000  0.928
 
band   4 # energy   -2.63360947 # occ.  1.00000000
 
ion      s     py     pz     px    dxy    dyz    dz2    dxz    dx2    tot
  1  0.000  0.002  0.000  0.002  0.000  0.007  0.000  0.007  0.000  0.017
  2  0.000  0.000  0.000  0.000  0.000  0.000  0.000  0.000  0.821  0.821
  3  0.000  0.034  0.000  0.034  0.000  0.000  0.000  0.000  0.000  0.068
  4  0.000  0.034  0.000  0.034  0.000  0.000  0.000  0.000  0.000  0.068
tot  0.000  0.070  0.000  0.070  0.000  0.007  0.000  0.007  0.821  0.974
 
band   5 # energy   -2.39063782 # occ.  1.00000000
 
ion      s     py     pz     px    dxy    dyz    dz2    dxz    dx2    tot
  1  0.029  0.006  0.003  0.006  0.052  0.014  0.001  0.014  0.000  0.125
  2  0.029  0.005  0.006  0.005  0.213  0.059  0.111  0.059  0.000  0.486
  3  0.004  0.051  0.029  0.051  0.000  0.000  0.000  0.000  0.000  0.133
  4  0.004  0.051  0.029  0.051  0.000  0.000  0.000  0.000  0.000  0.133
tot  0.065  0.112  0.066  0.112  0.265  0.073  0.112  0.073  0.000  0.878
 
band   6 # energy   -1.86949570 # occ.  1.00000000
 
ion      s     py     pz     px    dxy    dyz    dz2    dxz    dx2    tot
  1  0.024  0.002  0.002  0.002  0.025  0.050  0.000  0.050  0.000  0.153
  2  0.028  0.001  0.002  0.001  0.186  0.140  0.017  0.140  0.000  0.514
  3  0.008  0.031  0.045  0.031  0.000  0.000  0.000  0.000  0.000  0.115
  4  0.008  0.031  0.045  0.031  0.000  0.000  0.000  0.000  0.000  0.115
tot  0.068  0.064  0.094  0.064  0.211  0.189  0.017  0.189  0.000  0.896
 
band   7 # energy   -0.86425754 # occ.  1.00000000
 
ion      s     py     pz     px    dxy    dyz    dz2    dxz    dx2    tot
  1  0.000  0.000  0.000  0.000  0.000  0.011  0.000  0.011  0.009  0.030
  2  0.000  0.002  0.000  0.002  0.000  0.440  0.000  0.440  0.000  0.885
  3  0.000  0.013  0.000  0.013  0.000  0.000  0.000  0.000  0.000  0.025
  4  0.000  0.013  0.000  0.013  0.000  0.000  0.000  0.000  0.000  0.025
tot  0.000  0.027  0.000  0.027  0.000  0.451  0.000  0.451  0.009  0.965
 
band   8 # energy   -0.68957700 # occ.  1.00000000
 
ion      s     py     pz     px    dxy    dyz    dz2    dxz    dx2    tot
  1  0.000  0.000  0.010  0.000  0.183  0.070  0.016  0.070  0.000  0.349
  2  0.017  0.001  0.007  0.001  0.268  0.008  0.106  0.008  0.000  0.417
  3  0.006  0.016  0.041  0.016  0.000  0.000  0.000  0.000  0.000  0.079
  4  0.006  0.016  0.041  0.016  0.000  0.000  0.000  0.000  0.000  0.079
tot  0.029  0.033  0.100  0.033  0.451  0.078  0.123  0.078  0.000  0.925
 
band   9 # energy   -0.43913871 # occ.  1.00000000
 
ion      s     py     pz     px    dxy    dyz    dz2    dxz    dx2    tot
  1  0.007  0.001  0.000  0.001  0.346  0.038  0.009  0.038  0.000  0.440
  2  0.003  0.003  0.001  0.003  0.207  0.095  0.009  0.095  0.000  0.415
  3  0.000  0.020  0.007  0.020  0.000  0.000  0.000  0.000  0.000  0.048
  4  0.000  0.020  0.007  0.020  0.000  0.000  0.000  0.000  0.000  0.048
tot  0.011  0.044  0.015  0.044  0.553  0.133  0.018  0.133  0.000  0.951
 
band  10 # energy    0.46424687 # occ.  1.00000000
 
ion      s     py     pz     px    dxy    dyz    dz2    dxz    dx2    tot
  1  0.000  0.002  0.000  0.002  0.000  0.439  0.000  0.439  0.003  0.884
  2  0.000  0.000  0.000  0.000  0.000  0.007  0.000  0.007  0.041  0.057
  3  0.000  0.008  0.000  0.008  0.000  0.000  0.000  0.000  0.000  0.017
  4  0.000  0.008  0.000  0.008  0.000  0.000  0.000  0.000  0.000  0.017
tot  0.000  0.019  0.000  0.019  0.000  0.446  0.000  0.446  0.044  0.974
 
band  11 # energy    0.91559029 # occ.  1.00000000
 
ion      s     py     pz     px    dxy    dyz    dz2    dxz    dx2    tot
  1  0.041  0.000  0.009  0.000  0.020  0.039  0.038  0.039  0.000  0.185
  2  0.003  0.000  0.024  0.000  0.013  0.164  0.012  0.164  0.000  0.379
  3  0.006  0.006  0.168  0.006  0.000  0.000  0.000  0.000  0.000  0.187
  4  0.006  0.006  0.168  0.006  0.000  0.000  0.000  0.000  0.000  0.187
tot  0.056  0.013  0.369  0.013  0.032  0.203  0.049  0.203  0.000  0.938
 
band  12 # energy    1.49634328 # occ.  1.00000000
 
ion      s     py     pz     px    dxy    dyz    dz2    dxz    dx2    tot
  1  0.008  0.001  0.002  0.001  0.020  0.254  0.000  0.254  0.000  0.542
  2  0.066  0.000  0.001  0.000  0.046  0.000  0.001  0.000  0.000  0.113
  3  0.010  0.049  0.037  0.049  0.000  0.000  0.000  0.000  0.000  0.146
  4  0.010  0.049  0.037  0.049  0.000  0.000  0.000  0.000  0.000  0.146
tot  0.095  0.100  0.076  0.100  0.066  0.254  0.001  0.254  0.000  0.947
 
band  13 # energy    1.57508914 # occ.  1.00000000
 
ion      s     py     pz     px    dxy    dyz    dz2    dxz    dx2    tot
  1  0.033  0.004  0.003  0.004  0.308  0.006  0.063  0.006  0.000  0.425
  2  0.005  0.007  0.006  0.007  0.010  0.006  0.016  0.006  0.000  0.062
  3  0.001  0.101  0.025  0.101  0.000  0.000  0.000  0.000  0.000  0.228
  4  0.001  0.101  0.025  0.101  0.000  0.000  0.000  0.000  0.000  0.228
tot  0.039  0.212  0.059  0.212  0.318  0.011  0.079  0.011  0.000  0.943
 
band  14 # energy    1.69492344 # occ.  1.00000000
 
ion      s     py     pz     px    dxy    dyz    dz2    dxz    dx2    tot
  1  0.000  0.003  0.000  0.003  0.000  0.009  0.000  0.009  0.155  0.178
  2  0.000  0.014  0.000  0.014  0.000  0.043  0.000  0.043  0.004  0.117
  3  0.000  0.162  0.000  0.162  0.000  0.000  0.000  0.000  0.000  0.324
  4  0.000  0.162  0.000  0.162  0.000  0.000  0.000  0.000  0.000  0.324
tot  0.000  0.341  0.000  0.341  0.000  0.052  0.000  0.052  0.159  0.944
 
band  15 # energy    3.16928670 # occ.  1.00000000
 
ion      s     py     pz     px    dxy    dyz    dz2    dxz    dx2    tot
  1  0.000  0.005  0.020  0.005  0.002  0.008  0.031  0.008  0.000  0.079
  2  0.000  0.000  0.000  0.000  0.020  0.001  0.163  0.001  0.000  0.184
  3  0.004  0.059  0.222  0.059  0.000  0.000  0.000  0.000  0.000  0.343
  4  0.004  0.059  0.222  0.059  0.000  0.000  0.000  0.000  0.000  0.343
tot  0.009  0.122  0.463  0.122  0.022  0.009  0.194  0.009  0.000  0.950
 
band  16 # energy    3.34949917 # occ.  1.00000000
 
ion      s     py     pz     px    dxy    dyz    dz2    dxz    dx2    tot
  1  0.000  0.015  0.000  0.015  0.000  0.025  0.000  0.025  0.010  0.091
  2  0.000  0.000  0.000  0.000  0.000  0.000  0.000  0.000  0.159  0.160
  3  0.000  0.176  0.000  0.176  0.000  0.000  0.000  0.000  0.000  0.351
  4  0.000  0.176  0.000  0.176  0.000  0.000  0.000  0.000  0.000  0.351
tot  0.000  0.367  0.000  0.367  0.000  0.026  0.000  0.026  0.169  0.954
 
band  17 # energy    7.49819732 # occ.  0.00000000
 
ion      s     py     pz     px    dxy    dyz    dz2    dxz    dx2    tot
  1  0.000  0.000  0.000  0.000  0.000  0.000  0.000  0.000  0.816  0.817
  2  0.000  0.008  0.000  0.008  0.000  0.000  0.000  0.000  0.000  0.016
  3  0.000  0.035  0.000  0.035  0.000  0.000  0.000  0.000  0.000  0.070
  4  0.000  0.035  0.000  0.035  0.000  0.000  0.000  0.000  0.000  0.070
tot  0.000  0.077  0.000  0.077  0.000  0.001  0.000  0.001  0.816  0.972
 
band  18 # energy    7.52324145 # occ.  0.00000000
 
ion      s     py     pz     px    dxy    dyz    dz2    dxz    dx2    tot
  1  0.000  0.000  0.000  0.000  0.002  0.000  0.817  0.000  0.000  0.819
  2  0.000  0.003  0.011  0.003  0.000  0.000  0.000  0.000  0.000  0.018
  3  0.010  0.011  0.034  0.011  0.000  0.000  0.000  0.000  0.000  0.066
  4  0.010  0.011  0.034  0.011  0.000  0.000  0.000  0.000  0.000  0.066
tot  0.020  0.025  0.080  0.025  0.002  0.000  0.817  0.000  0.000  0.968
 
band  19 # energy    9.76163056 # occ.  0.00000000
 
ion      s     py     pz     px    dxy    dyz    dz2    dxz    dx2    tot
  1  0.101  0.020  0.019  0.020  0.001  0.001  0.000  0.001  0.000  0.163
  2  0.114  0.019  0.019  0.019  0.001  0.001  0.000  0.001  0.000  0.175
  3  0.089  0.035  0.034  0.035  0.000  0.000  0.000  0.000  0.000  0.193
  4  0.089  0.035  0.034  0.035  0.000  0.000  0.000  0.000  0.000  0.193
tot  0.393  0.108  0.108  0.108  0.002  0.002  0.000  0.002  0.000  0.724
 
band  20 # energy   12.82520779 # occ.  0.00000000
 
ion      s     py     pz     px    dxy    dyz    dz2    dxz    dx2    tot
  1  0.146  0.029  0.006  0.029  0.010  0.000  0.011  0.000  0.000  0.231
  2  0.142  0.032  0.003  0.032  0.009  0.000  0.006  0.000  0.000  0.225
  3  0.033  0.004  0.085  0.004  0.000  0.000  0.000  0.000  0.000  0.127
  4  0.033  0.004  0.085  0.004  0.000  0.000  0.000  0.000  0.000  0.127
tot  0.354  0.069  0.179  0.069  0.019  0.001  0.017  0.001  0.000  0.709
 

 k-point    5 :    0.50000000 0.25000000 0.00000000     weight = 0.18750000

band   1 # energy  -13.06463084 # occ.  1.00000000
 
ion      s     py     pz     px    dxy    dyz    dz2    dxz    dx2    tot
  1  0.009  0.000  0.010  0.011  0.000  0.000  0.000  0.000  0.006  0.037
  2  0.007  0.003  0.007  0.008  0.000  0.000  0.003  0.000  0.020  0.049
  3  0.428  0.000  0.000  0.000  0.000  0.000  0.000  0.000  0.000  0.428
  4  0.428  0.000  0.000  0.000  0.000  0.000  0.000  0.000  0.000  0.428
tot  0.871  0.004  0.017  0.020  0.000  0.000  0.003  0.000  0.027  0.942
 
band   2 # energy  -12.85372557 # occ.  1.00000000
 
ion      s     py     pz     px    dxy    dyz    dz2    dxz    dx2    tot
  1  0.000  0.010  0.000  0.000  0.000  0.000  0.016  0.000  0.003  0.030
  2  0.003  0.007  0.004  0.004  0.000  0.000  0.036  0.000  0.001  0.054
  3  0.435  0.000  0.000  0.000  0.000  0.000  0.000  0.000  0.000  0.435
  4  0.435  0.000  0.000  0.000  0.000  0.000  0.000  0.000  0.000  0.435
tot  0.873  0.017  0.004  0.004  0.000  0.000  0.052  0.000  0.004  0.955
 
band   3 # energy   -3.01461258 # occ.  1.00000000
 
ion      s     py     pz     px    dxy    dyz    dz2    dxz    dx2    tot
  1  0.041  0.000  0.000  0.008  0.001  0.000  0.000  0.032  0.001  0.084
  2  0.013  0.001  0.000  0.006  0.012  0.012  0.029  0.063  0.440  0.576
  3  0.000  0.023  0.027  0.078  0.000  0.000  0.000  0.000  0.000  0.128
  4  0.000  0.023  0.027  0.078  0.000  0.000  0.000  0.000  0.000  0.128
tot  0.055  0.048  0.054  0.170  0.013  0.012  0.029  0.096  0.441  0.917
 
band   4 # energy   -2.49310893 # occ.  1.00000000
 
ion      s     py     pz     px    dxy    dyz    dz2    dxz    dx2    tot
  1  0.000  0.001  0.012  0.007  0.013  0.010  0.005  0.000  0.002  0.048
  2  0.000  0.000  0.006  0.000  0.004  0.010  0.652  0.002  0.029  0.702
  3  0.008  0.004  0.063  0.029  0.000  0.000  0.000  0.000  0.000  0.103
  4  0.008  0.004  0.063  0.029  0.000  0.000  0.000  0.000  0.000  0.103
tot  0.015  0.009  0.143  0.064  0.016  0.020  0.657  0.002  0.030  0.957
 
band   5 # energy   -2.12836445 # occ.  1.00000000
 
ion      s     py     pz     px    dxy    dyz    dz2    dxz    dx2    tot
  1  0.019  0.007  0.004  0.005  0.001  0.011  0.001  0.018  0.000  0.066
  2  0.001  0.010  0.010  0.006  0.202  0.249  0.001  0.000  0.136  0.615
  3  0.002  0.045  0.034  0.026  0.000  0.000  0.000  0.000  0.000  0.107
  4  0.002  0.045  0.034  0.026  0.000  0.000  0.000  0.000  0.000  0.107
tot  0.024  0.108  0.083  0.063  0.203  0.260  0.002  0.018  0.136  0.895
 
band   6 # energy   -2.02200611 # occ.  1.00000000
 
ion      s     py     pz     px    dxy    dyz    dz2    dxz    dx2    tot
  1  0.000  0.008  0.015  0.010  0.091  0.099  0.000  0.004  0.006  0.235
  2  0.062  0.001  0.009  0.001  0.024  0.003  0.012  0.118  0.080  0.311
  3  0.003  0.068  0.055  0.035  0.000  0.000  0.000  0.000  0.000  0.161
  4  0.003  0.068  0.055  0.035  0.000  0.000  0.000  0.000  0.000  0.161
tot  0.069  0.145  0.134  0.082  0.115  0.103  0.013  0.122  0.087  0.869
 
band   7 # energy   -1.45383533 # occ.  1.00000000
 
ion      s     py     pz     px    dxy    dyz    dz2    dxz    dx2    tot
  1  0.000  0.000  0.009  0.003  0.055  0.007  0.011  0.000  0.004  0.091
  2  0.000  0.000  0.013  0.013  0.322  0.242  0.057  0.001  0.000  0.650
  3  0.002  0.000  0.044  0.039  0.000  0.000  0.000  0.000  0.000  0.086
  4  0.002  0.000  0.044  0.039  0.000  0.000  0.000  0.000  0.000  0.086
tot  0.004  0.001  0.111  0.095  0.378  0.250  0.068  0.001  0.005  0.912
 
band   8 # energy   -0.84012212 # occ.  1.00000000
 
ion      s     py     pz     px    dxy    dyz    dz2    dxz    dx2    tot
  1  0.007  0.004  0.008  0.000  0.033  0.168  0.008  0.093  0.012  0.333
  2  0.002  0.008  0.012  0.005  0.027  0.075  0.000  0.140  0.100  0.369
  3  0.003  0.033  0.054  0.018  0.000  0.000  0.000  0.000  0.000  0.108
  4  0.003  0.033  0.054  0.018  0.000  0.000  0.000  0.000  0.000  0.108
tot  0.015  0.077  0.129  0.041  0.060  0.243  0.008  0.233  0.112  0.918
 
band   9 # energy   -0.04214791 # occ.  1.00000000
 
ion      s     py     pz     px    dxy    dyz    dz2    dxz    dx2    tot
  1  0.005  0.001  0.002  0.001  0.163  0.004  0.002  0.077  0.003  0.258
  2  0.011  0.000  0.003  0.000  0.005  0.128  0.017  0.460  0.001  0.626
  3  0.001  0.010  0.020  0.012  0.000  0.000  0.000  0.000  0.000  0.043
  4  0.001  0.010  0.020  0.012  0.000  0.000  0.000  0.000  0.000  0.043
tot  0.018  0.021  0.045  0.025  0.168  0.133  0.019  0.537  0.004  0.969
 
band  10 # energy    0.09854442 # occ.  1.00000000
 
ion      s     py     pz     px    dxy    dyz    dz2    dxz    dx2    tot
  1  0.002  0.000  0.003  0.003  0.219  0.138  0.000  0.078  0.010  0.452
  2  0.003  0.001  0.002  0.012  0.207  0.028  0.014  0.116  0.001  0.383
  3  0.001  0.008  0.010  0.044  0.000  0.000  0.000  0.000  0.000  0.062
  4  0.001  0.008  0.010  0.044  0.000  0.000  0.000  0.000  0.000  0.062
tot  0.006  0.017  0.024  0.103  0.426  0.166  0.015  0.194  0.010  0.960
 
band  11 # energy    0.95890700 # occ.  1.00000000
 
ion      s     py     pz     px    dxy    dyz    dz2    dxz    dx2    tot
  1  0.013  0.001  0.006  0.004  0.015  0.222  0.001  0.019  0.027  0.309
  2  0.033  0.010  0.007  0.000  0.047  0.166  0.005  0.050  0.001  0.318
  3  0.000  0.099  0.038  0.024  0.000  0.000  0.000  0.000  0.000  0.162
  4  0.000  0.099  0.038  0.024  0.000  0.000  0.000  0.000  0.000  0.162
tot  0.047  0.209  0.089  0.053  0.063  0.387  0.007  0.069  0.028  0.950
 
band  12 # energy    1.18813214 # occ.  1.00000000
 
ion      s     py     pz     px    dxy    dyz    dz2    dxz    dx2    tot
  1  0.006  0.000  0.010  0.005  0.134  0.147  0.052  0.011  0.000  0.364
  2  0.009  0.003  0.017  0.017  0.063  0.023  0.000  0.001  0.020  0.153
  3  0.000  0.048  0.082  0.082  0.000  0.000  0.000  0.000  0.000  0.212
  4  0.000  0.048  0.082  0.082  0.000  0.000  0.000  0.000  0.000  0.212
tot  0.016  0.099  0.191  0.185  0.197  0.170  0.052  0.011  0.021  0.942
 
band  13 # energy    1.39529463 # occ.  1.00000000
 
ion      s     py     pz     px    dxy    dyz    dz2    dxz    dx2    tot
  1  0.026  0.001  0.002  0.000  0.004  0.000  0.000  0.645  0.009  0.686
  2  0.008  0.001  0.003  0.011  0.039  0.020  0.002  0.007  0.005  0.094
  3  0.002  0.010  0.022  0.062  0.000  0.000  0.000  0.000  0.000  0.096
  4  0.002  0.010  0.022  0.062  0.000  0.000  0.000  0.000  0.000  0.096
tot  0.038  0.021  0.048  0.136  0.042  0.020  0.002  0.652  0.013  0.972
 
band  14 # energy    1.78806557 # occ.  1.00000000
 
ion      s     py     pz     px    dxy    dyz    dz2    dxz    dx2    tot
  1  0.017  0.001  0.004  0.013  0.184  0.081  0.001  0.003  0.043  0.347
  2  0.003  0.013  0.002  0.013  0.003  0.010  0.017  0.024  0.037  0.122
  3  0.001  0.124  0.026  0.087  0.000  0.000  0.000  0.000  0.000  0.239
  4  0.001  0.124  0.026  0.087  0.000  0.000  0.000  0.000  0.000  0.239
tot  0.023  0.262  0.058  0.201  0.187  0.091  0.019  0.026  0.080  0.947
 
band  15 # energy    2.47833731 # occ.  1.00000000
 
ion      s     py     pz     px    dxy    dyz    dz2    dxz    dx2    tot
  1  0.008  0.026  0.000  0.021  0.009  0.086  0.015  0.004  0.001  0.171
  2  0.005  0.007  0.000  0.000  0.020  0.009  0.002  0.007  0.155  0.206
  3  0.004  0.186  0.007  0.083  0.000  0.000  0.000  0.000  0.000  0.281
  4  0.004  0.186  0.007  0.083  0.000  0.000  0.000  0.000  0.000  0.281
tot  0.022  0.407  0.015  0.188  0.028  0.095  0.017  0.011  0.156  0.939
 
band  16 # energy    2.70856139 # occ.  1.00000000
 
ion      s     py     pz     px    dxy    dyz    dz2    dxz    dx2    tot
  1  0.012  0.008  0.010  0.009  0.051  0.000  0.059  0.009  0.012  0.170
  2  0.000  0.003  0.000  0.000  0.003  0.002  0.187  0.004  0.001  0.201
  3  0.004  0.057  0.182  0.046  0.000  0.000  0.000  0.000  0.000  0.290
  4  0.004  0.057  0.182  0.046  0.000  0.000  0.000  0.000  0.000  0.290
tot  0.021  0.125  0.375  0.102  0.054  0.003  0.246  0.014  0.013  0.951
 
band  17 # energy    7.36666411 # occ.  0.00000000
 
ion      s     py     pz     px    dxy    dyz    dz2    dxz    dx2    tot
  1  0.001  0.000  0.001  0.000  0.000  0.000  0.138  0.000  0.714  0.854
  2  0.026  0.006  0.000  0.003  0.000  0.000  0.001  0.000  0.001  0.037
  3  0.007  0.024  0.002  0.005  0.000  0.000  0.000  0.000  0.000  0.038
  4  0.007  0.024  0.002  0.005  0.000  0.000  0.000  0.000  0.000  0.038
tot  0.040  0.055  0.005  0.012  0.000  0.001  0.139  0.000  0.714  0.966
 
band  18 # energy    7.75207129 # occ.  0.00000000
 
ion      s     py     pz     px    dxy    dyz    dz2    dxz    dx2    tot
  1  0.000  0.000  0.000  0.001  0.000  0.000  0.693  0.000  0.128  0.822
  2  0.000  0.000  0.005  0.006  0.000  0.000  0.005  0.000  0.002  0.020
  3  0.011  0.000  0.038  0.019  0.000  0.000  0.000  0.000  0.000  0.068
  4  0.011  0.000  0.038  0.019  0.000  0.000  0.000  0.000  0.000  0.068
tot  0.022  0.001  0.082  0.045  0.000  0.000  0.698  0.000  0.131  0.978
 
band  19 # energy   12.57210230 # occ.  0.00000000
 
ion      s     py     pz     px    dxy    dyz    dz2    dxz    dx2    tot
  1  0.071  0.012  0.042  0.024  0.000  0.003  0.000  0.002  0.021  0.175
  2  0.076  0.010  0.044  0.024  0.000  0.003  0.000  0.002  0.010  0.169
  3  0.044  0.001  0.023  0.109  0.000  0.000  0.000  0.000  0.000  0.177
  4  0.044  0.001  0.023  0.109  0.000  0.000  0.000  0.000  0.000  0.177
tot  0.235  0.024  0.132  0.267  0.000  0.007  0.000  0.004  0.031  0.699
 
band  20 # energy   13.49596871 # occ.  0.00000000
 
ion      s     py     pz     px    dxy    dyz    dz2    dxz    dx2    tot
  1  0.240  0.018  0.000  0.013  0.003  0.001  0.000  0.000  0.006  0.281
  2  0.262  0.023  0.000  0.007  0.003  0.001  0.000  0.000  0.005  0.300
  3  0.013  0.065  0.023  0.001  0.000  0.000  0.000  0.000  0.000  0.102
  4  0.013  0.065  0.023  0.001  0.000  0.000  0.000  0.000  0.000  0.102
tot  0.528  0.170  0.047  0.021  0.005  0.002  0.000  0.000  0.011  0.785
 

 k-point    6 :   -0.25000000 0.25000000 0.00000000     weight = 0.09375000

band   1 # energy  -13.10058022 # occ.  1.00000000
 
ion      s     py     pz     px    dxy    dyz    dz2    dxz    dx2    tot
  1  0.009  0.011  0.000  0.011  0.000  0.000  0.006  0.000  0.000  0.037
  2  0.010  0.011  0.000  0.011  0.000  0.000  0.014  0.000  0.000  0.046
  3  0.427  0.000  0.000  0.000  0.000  0.000  0.000  0.000  0.000  0.427
  4  0.427  0.000  0.000  0.000  0.000  0.000  0.000  0.000  0.000  0.427
tot  0.873  0.023  0.000  0.023  0.000  0.000  0.020  0.000  0.000  0.938
 
band   2 # energy  -12.82121025 # occ.  1.00000000
 
ion      s     py     pz     px    dxy    dyz    dz2    dxz    dx2    tot
  1  0.000  0.000  0.010  0.000  0.000  0.000  0.000  0.000  0.020  0.030
  2  0.000  0.000  0.010  0.000  0.000  0.000  0.000  0.000  0.047  0.058
  3  0.436  0.000  0.000  0.000  0.000  0.000  0.000  0.000  0.000  0.436
  4  0.436  0.000  0.000  0.000  0.000  0.000  0.000  0.000  0.000  0.436
tot  0.872  0.000  0.020  0.000  0.000  0.000  0.000  0.000  0.067  0.960
 
band   3 # energy   -3.11800012 # occ.  1.00000000
 
ion      s     py     pz     px    dxy    dyz    dz2    dxz    dx2    tot
  1  0.047  0.001  0.000  0.001  0.037  0.000  0.001  0.000  0.000  0.087
  2  0.013  0.001  0.000  0.001  0.069  0.000  0.498  0.000  0.000  0.582
  3  0.000  0.050  0.027  0.050  0.000  0.000  0.000  0.000  0.000  0.127
  4  0.000  0.050  0.027  0.050  0.000  0.000  0.000  0.000  0.000  0.127
tot  0.061  0.101  0.054  0.101  0.106  0.000  0.499  0.000  0.000  0.922
 
band   4 # energy   -2.31704715 # occ.  1.00000000
 
ion      s     py     pz     px    dxy    dyz    dz2    dxz    dx2    tot
  1  0.000  0.000  0.000  0.000  0.000  0.000  0.000  0.000  0.023  0.024
  2  0.000  0.000  0.000  0.000  0.000  0.000  0.000  0.000  0.772  0.773
  3  0.012  0.039  0.000  0.039  0.000  0.000  0.000  0.000  0.000  0.090
  4  0.012  0.039  0.000  0.039  0.000  0.000  0.000  0.000  0.000  0.090
tot  0.024  0.079  0.000  0.079  0.000  0.000  0.000  0.000  0.795  0.978
 
band   5 # energy   -1.90130883 # occ.  1.00000000
 
ion      s     py     pz     px    dxy    dyz    dz2    dxz    dx2    tot
  1  0.000  0.010  0.009  0.010  0.000  0.000  0.000  0.000  0.000  0.029
  2  0.000  0.010  0.009  0.010  0.000  0.319  0.000  0.319  0.000  0.667
  3  0.000  0.031  0.036  0.031  0.000  0.000  0.000  0.000  0.000  0.098
  4  0.000  0.031  0.036  0.031  0.000  0.000  0.000  0.000  0.000  0.098
tot  0.000  0.082  0.089  0.082  0.000  0.319  0.000  0.319  0.000  0.892
 
band   6 # energy   -1.71867599 # occ.  1.00000000
 
ion      s     py     pz     px    dxy    dyz    dz2    dxz    dx2    tot
  1  0.000  0.019  0.000  0.019  0.000  0.056  0.000  0.056  0.000  0.149
  2  0.000  0.019  0.000  0.019  0.000  0.226  0.000  0.226  0.000  0.490
  3  0.000  0.060  0.000  0.060  0.000  0.000  0.000  0.000  0.000  0.120
  4  0.000  0.060  0.000  0.060  0.000  0.000  0.000  0.000  0.000  0.120
tot  0.000  0.158  0.000  0.158  0.000  0.282  0.000  0.282  0.000  0.879
 
band   7 # energy   -1.58745816 # occ.  1.00000000
 
ion      s     py     pz     px    dxy    dyz    dz2    dxz    dx2    tot
  1  0.004  0.000  0.000  0.000  0.068  0.000  0.032  0.000  0.000  0.105
  2  0.059  0.000  0.000  0.000  0.230  0.000  0.259  0.000  0.000  0.549
  3  0.009  0.032  0.059  0.032  0.000  0.000  0.000  0.000  0.000  0.132
  4  0.009  0.032  0.059  0.032  0.000  0.000  0.000  0.000  0.000  0.132
tot  0.081  0.065  0.119  0.065  0.298  0.000  0.291  0.000  0.000  0.918
 
band   8 # energy   -1.28372961 # occ.  1.00000000
 
ion      s     py     pz     px    dxy    dyz    dz2    dxz    dx2    tot
  1  0.000  0.012  0.016  0.012  0.000  0.237  0.000  0.237  0.000  0.514
  2  0.000  0.012  0.016  0.012  0.000  0.007  0.000  0.007  0.000  0.055
  3  0.000  0.041  0.070  0.041  0.000  0.000  0.000  0.000  0.000  0.151
  4  0.000  0.041  0.070  0.041  0.000  0.000  0.000  0.000  0.000  0.151
tot  0.000  0.106  0.171  0.106  0.000  0.244  0.000  0.244  0.000  0.870
 
band   9 # energy   -0.09754612 # occ.  1.00000000
 
ion      s     py     pz     px    dxy    dyz    dz2    dxz    dx2    tot
  1  0.000  0.006  0.000  0.006  0.000  0.192  0.000  0.192  0.000  0.396
  2  0.000  0.006  0.000  0.006  0.000  0.225  0.000  0.225  0.000  0.462
  3  0.000  0.025  0.000  0.025  0.000  0.000  0.000  0.000  0.000  0.049
  4  0.000  0.025  0.000  0.025  0.000  0.000  0.000  0.000  0.000  0.049
tot  0.000  0.062  0.000  0.062  0.000  0.416  0.000  0.416  0.000  0.957
 
band  10 # energy    0.13058624 # occ.  1.00000000
 
ion      s     py     pz     px    dxy    dyz    dz2    dxz    dx2    tot
  1  0.003  0.000  0.000  0.000  0.148  0.000  0.015  0.000  0.000  0.167
  2  0.028  0.000  0.000  0.000  0.659  0.000  0.000  0.000  0.000  0.688
  3  0.001  0.021  0.017  0.021  0.000  0.000  0.000  0.000  0.000  0.059
  4  0.001  0.021  0.017  0.021  0.000  0.000  0.000  0.000  0.000  0.059
tot  0.034  0.041  0.034  0.041  0.807  0.000  0.015  0.000  0.000  0.974
 
band  11 # energy    1.13280033 # occ.  1.00000000
 
ion      s     py     pz     px    dxy    dyz    dz2    dxz    dx2    tot
  1  0.005  0.000  0.000  0.000  0.559  0.000  0.043  0.000  0.000  0.607
  2  0.047  0.000  0.000  0.000  0.008  0.000  0.054  0.000  0.000  0.109
  3  0.000  0.012  0.100  0.012  0.000  0.000  0.000  0.000  0.000  0.123
  4  0.000  0.012  0.100  0.012  0.000  0.000  0.000  0.000  0.000  0.123
tot  0.051  0.024  0.200  0.024  0.566  0.000  0.097  0.000  0.000  0.962
 
band  12 # energy    1.15997665 # occ.  1.00000000
 
ion      s     py     pz     px    dxy    dyz    dz2    dxz    dx2    tot
  1  0.000  0.019  0.004  0.019  0.000  0.088  0.000  0.088  0.000  0.218
  2  0.000  0.019  0.004  0.019  0.000  0.128  0.000  0.128  0.000  0.299
  3  0.000  0.092  0.027  0.092  0.000  0.000  0.000  0.000  0.000  0.211
  4  0.000  0.092  0.027  0.092  0.000  0.000  0.000  0.000  0.000  0.211
tot  0.000  0.221  0.063  0.221  0.000  0.217  0.000  0.217  0.000  0.939
 
band  13 # energy    1.32478140 # occ.  1.00000000
 
ion      s     py     pz     px    dxy    dyz    dz2    dxz    dx2    tot
  1  0.000  0.016  0.000  0.016  0.000  0.239  0.000  0.239  0.000  0.512
  2  0.000  0.017  0.000  0.017  0.000  0.037  0.000  0.037  0.000  0.108
  3  0.000  0.083  0.000  0.083  0.000  0.000  0.000  0.000  0.000  0.166
  4  0.000  0.083  0.000  0.083  0.000  0.000  0.000  0.000  0.000  0.166
tot  0.000  0.199  0.000  0.199  0.000  0.277  0.000  0.277  0.000  0.951
 
band  14 # energy    1.80622256 # occ.  1.00000000
 
ion      s     py     pz     px    dxy    dyz    dz2    dxz    dx2    tot
  1  0.107  0.000  0.000  0.000  0.180  0.000  0.013  0.000  0.000  0.301
  2  0.000  0.000  0.000  0.000  0.028  0.000  0.192  0.000  0.000  0.221
  3  0.007  0.031  0.136  0.031  0.000  0.000  0.000  0.000  0.000  0.205
  4  0.007  0.031  0.136  0.031  0.000  0.000  0.000  0.000  0.000  0.205
tot  0.121  0.063  0.271  0.063  0.208  0.000  0.205  0.000  0.000  0.931
 
band  15 # energy    2.26153314 # occ.  1.00000000
 
ion      s     py     pz     px    dxy    dyz    dz2    dxz    dx2    tot
  1  0.000  0.001  0.031  0.001  0.000  0.163  0.000  0.163  0.000  0.358
  2  0.000  0.001  0.032  0.001  0.000  0.037  0.000  0.037  0.000  0.107
  3  0.000  0.004  0.239  0.004  0.000  0.000  0.000  0.000  0.000  0.247
  4  0.000  0.004  0.239  0.004  0.000  0.000  0.000  0.000  0.000  0.247
tot  0.000  0.009  0.541  0.009  0.000  0.200  0.000  0.200  0.000  0.958
 
band  16 # energy    2.68593103 # occ.  1.00000000
 
ion      s     py     pz     px    dxy    dyz    dz2    dxz    dx2    tot
  1  0.000  0.001  0.000  0.001  0.000  0.000  0.000  0.000  0.173  0.175
  2  0.000  0.001  0.000  0.001  0.000  0.000  0.000  0.000  0.214  0.216
  3  0.006  0.139  0.000  0.139  0.000  0.000  0.000  0.000  0.000  0.285
  4  0.006  0.139  0.000  0.139  0.000  0.000  0.000  0.000  0.000  0.285
tot  0.012  0.281  0.000  0.281  0.000  0.000  0.000  0.000  0.387  0.961
 
band  17 # energy    7.21294725 # occ.  0.00000000
 
ion      s     py     pz     px    dxy    dyz    dz2    dxz    dx2    tot
  1  0.002  0.000  0.000  0.000  0.000  0.000  0.863  0.000  0.000  0.865
  2  0.048  0.000  0.000  0.000  0.000  0.000  0.002  0.000  0.000  0.050
  3  0.007  0.000  0.016  0.000  0.000  0.000  0.000  0.000  0.000  0.024
  4  0.007  0.000  0.016  0.000  0.000  0.000  0.000  0.000  0.000  0.024
tot  0.063  0.001  0.033  0.001  0.000  0.000  0.866  0.000  0.000  0.963
 
band  18 # energy    7.93899959 # occ.  0.00000000
 
ion      s     py     pz     px    dxy    dyz    dz2    dxz    dx2    tot
  1  0.000  0.000  0.000  0.000  0.000  0.000  0.000  0.000  0.796  0.796
  2  0.000  0.000  0.000  0.000  0.000  0.000  0.000  0.000  0.016  0.016
  3  0.007  0.041  0.000  0.041  0.000  0.000  0.000  0.000  0.000  0.089
  4  0.007  0.041  0.000  0.041  0.000  0.000  0.000  0.000  0.000  0.089
tot  0.014  0.082  0.000  0.082  0.000  0.000  0.000  0.000  0.812  0.990
 
band  19 # energy   12.48769644 # occ.  0.00000000
 
ion      s     py     pz     px    dxy    dyz    dz2    dxz    dx2    tot
  1  0.059  0.044  0.000  0.044  0.003  0.000  0.016  0.000  0.000  0.167
  2  0.048  0.047  0.000  0.047  0.003  0.000  0.008  0.000  0.000  0.153
  3  0.050  0.069  0.000  0.069  0.000  0.000  0.000  0.000  0.000  0.188
  4  0.050  0.069  0.000  0.069  0.000  0.000  0.000  0.000  0.000  0.188
tot  0.207  0.229  0.000  0.229  0.007  0.000  0.023  0.000  0.000  0.695
 
band  20 # energy   13.86628673 # occ.  0.00000000
 
ion      s     py     pz     px    dxy    dyz    dz2    dxz    dx2    tot
  1  0.278  0.000  0.000  0.000  0.000  0.000  0.015  0.000  0.000  0.294
  2  0.298  0.000  0.000  0.000  0.000  0.000  0.011  0.000  0.000  0.309
  3  0.000  0.000  0.115  0.000  0.000  0.000  0.000  0.000  0.000  0.115
  4  0.000  0.000  0.115  0.000  0.000  0.000  0.000  0.000  0.000  0.115
tot  0.576  0.000  0.230  0.000  0.000  0.000  0.026  0.000  0.000  0.833
 

 k-point    7 :    0.50000000 0.50000000 0.00000000     weight = 0.04687500

band   1 # energy  -12.96460315 # occ.  1.00000000
 
ion      s     py     pz     px    dxy    dyz    dz2    dxz    dx2    tot
  1  0.007  0.000  0.000  0.000  0.000  0.000  0.027  0.000  0.000  0.034
  2  0.008  0.000  0.000  0.000  0.000  0.000  0.062  0.000  0.000  0.070
  3  0.430  0.000  0.000  0.000  0.000  0.000  0.000  0.000  0.000  0.430
  4  0.430  0.000  0.000  0.000  0.000  0.000  0.000  0.000  0.000  0.430
tot  0.875  0.000  0.000  0.000  0.000  0.000  0.089  0.000  0.000  0.964
 
band   2 # energy  -12.93127812 # occ.  1.00000000
 
ion      s     py     pz     px    dxy    dyz    dz2    dxz    dx2    tot
  1  0.000  0.011  0.011  0.011  0.000  0.000  0.000  0.000  0.000  0.033
  2  0.000  0.011  0.011  0.011  0.000  0.000  0.000  0.000  0.000  0.034
  3  0.435  0.000  0.000  0.000  0.000  0.000  0.000  0.000  0.000  0.435
  4  0.435  0.000  0.000  0.000  0.000  0.000  0.000  0.000  0.000  0.435
tot  0.871  0.022  0.022  0.022  0.000  0.000  0.000  0.000  0.000  0.937
 
band   3 # energy   -3.57914937 # occ.  1.00000000
 
ion      s     py     pz     px    dxy    dyz    dz2    dxz    dx2    tot
  1  0.077  0.000  0.000  0.000  0.034  0.040  0.000  0.040  0.000  0.192
  2  0.080  0.000  0.000  0.000  0.077  0.067  0.000  0.067  0.000  0.292
  3  0.000  0.057  0.057  0.057  0.000  0.000  0.000  0.000  0.000  0.172
  4  0.000  0.057  0.057  0.057  0.000  0.000  0.000  0.000  0.000  0.172
tot  0.157  0.114  0.115  0.114  0.112  0.108  0.000  0.108  0.000  0.827
 
band   4 # energy   -2.66005814 # occ.  1.00000000
 
ion      s     py     pz     px    dxy    dyz    dz2    dxz    dx2    tot
  1  0.000  0.000  0.000  0.000  0.000  0.007  0.000  0.007  0.012  0.026
  2  0.000  0.000  0.000  0.000  0.000  0.015  0.000  0.015  0.768  0.798
  3  0.000  0.038  0.000  0.038  0.000  0.000  0.000  0.000  0.000  0.075
  4  0.000  0.038  0.000  0.038  0.000  0.000  0.000  0.000  0.000  0.075
tot  0.000  0.075  0.000  0.075  0.000  0.022  0.000  0.022  0.781  0.975
 
band   5 # energy   -2.36646926 # occ.  1.00000000
 
ion      s     py     pz     px    dxy    dyz    dz2    dxz    dx2    tot
  1  0.000  0.000  0.000  0.000  0.007  0.003  0.029  0.003  0.000  0.042
  2  0.000  0.000  0.000  0.000  0.045  0.008  0.674  0.008  0.000  0.734
  3  0.013  0.014  0.057  0.014  0.000  0.000  0.000  0.000  0.000  0.098
  4  0.013  0.014  0.057  0.014  0.000  0.000  0.000  0.000  0.000  0.098
tot  0.027  0.028  0.114  0.028  0.051  0.011  0.703  0.011  0.000  0.972
 
band   6 # energy   -1.42486369 # occ.  1.00000000
 
ion      s     py     pz     px    dxy    dyz    dz2    dxz    dx2    tot
  1  0.000  0.000  0.107  0.000  0.000  0.000  0.000  0.000  0.000  0.107
  2  0.000  0.000  0.110  0.000  0.000  0.000  0.000  0.000  0.000  0.110
  3  0.000  0.000  0.294  0.000  0.000  0.000  0.000  0.000  0.000  0.294
  4  0.000  0.000  0.294  0.000  0.000  0.000  0.000  0.000  0.000  0.294
tot  0.000  0.000  0.805  0.000  0.000  0.000  0.000  0.000  0.000  0.805
 
band   7 # energy   -1.42141283 # occ.  1.00000000
 
ion      s     py     pz     px    dxy    dyz    dz2    dxz    dx2    tot
  1  0.001  0.000  0.000  0.000  0.220  0.002  0.000  0.002  0.000  0.225
  2  0.001  0.000  0.000  0.000  0.644  0.007  0.028  0.007  0.000  0.687
  3  0.001  0.002  0.000  0.002  0.000  0.000  0.000  0.000  0.000  0.004
  4  0.001  0.002  0.000  0.002  0.000  0.000  0.000  0.000  0.000  0.004
tot  0.004  0.003  0.000  0.003  0.864  0.009  0.029  0.009  0.000  0.920
 
band   8 # energy   -0.48806370 # occ.  1.00000000
 
ion      s     py     pz     px    dxy    dyz    dz2    dxz    dx2    tot
  1  0.000  0.000  0.000  0.000  0.000  0.013  0.000  0.013  0.002  0.028
  2  0.000  0.000  0.000  0.000  0.000  0.441  0.000  0.441  0.068  0.950
  3  0.000  0.001  0.000  0.001  0.000  0.000  0.000  0.000  0.000  0.003
  4  0.000  0.001  0.000  0.001  0.000  0.000  0.000  0.000  0.000  0.003
tot  0.000  0.003  0.000  0.003  0.000  0.454  0.000  0.454  0.070  0.984
 
band   9 # energy   -0.18853888 # occ.  1.00000000
 
ion      s     py     pz     px    dxy    dyz    dz2    dxz    dx2    tot
  1  0.003  0.000  0.000  0.000  0.260  0.001  0.001  0.001  0.000  0.265
  2  0.004  0.000  0.000  0.000  0.032  0.298  0.061  0.298  0.000  0.692
  3  0.001  0.005  0.000  0.005  0.000  0.000  0.000  0.000  0.000  0.011
  4  0.001  0.005  0.000  0.005  0.000  0.000  0.000  0.000  0.000  0.011
tot  0.009  0.009  0.000  0.009  0.292  0.298  0.062  0.298  0.000  0.979
 
band  10 # energy    0.46056776 # occ.  1.00000000
 
ion      s     py     pz     px    dxy    dyz    dz2    dxz    dx2    tot
  1  0.005  0.000  0.000  0.000  0.274  0.183  0.002  0.183  0.000  0.647
  2  0.005  0.000  0.000  0.000  0.080  0.091  0.034  0.091  0.000  0.300
  3  0.001  0.001  0.014  0.001  0.000  0.000  0.000  0.000  0.000  0.017
  4  0.001  0.001  0.014  0.001  0.000  0.000  0.000  0.000  0.000  0.017
tot  0.011  0.003  0.028  0.003  0.354  0.274  0.036  0.274  0.000  0.982
 
band  11 # energy    0.73469526 # occ.  1.00000000
 
ion      s     py     pz     px    dxy    dyz    dz2    dxz    dx2    tot
  1  0.000  0.000  0.000  0.000  0.000  0.441  0.000  0.441  0.005  0.888
  2  0.000  0.000  0.000  0.000  0.000  0.027  0.000  0.027  0.028  0.082
  3  0.000  0.005  0.000  0.005  0.000  0.000  0.000  0.000  0.000  0.009
  4  0.000  0.005  0.000  0.005  0.000  0.000  0.000  0.000  0.000  0.009
tot  0.000  0.009  0.000  0.009  0.000  0.468  0.000  0.468  0.034  0.988
 
band  12 # energy    1.36993897 # occ.  1.00000000
 
ion      s     py     pz     px    dxy    dyz    dz2    dxz    dx2    tot
  1  0.000  0.028  0.000  0.028  0.000  0.000  0.000  0.000  0.000  0.055
  2  0.000  0.028  0.000  0.028  0.000  0.000  0.000  0.000  0.000  0.057
  3  0.000  0.197  0.000  0.197  0.000  0.000  0.000  0.000  0.000  0.394
  4  0.000  0.197  0.000  0.197  0.000  0.000  0.000  0.000  0.000  0.394
tot  0.000  0.451  0.000  0.451  0.000  0.000  0.000  0.000  0.000  0.901
 
band  13 # energy    1.37230662 # occ.  1.00000000
 
ion      s     py     pz     px    dxy    dyz    dz2    dxz    dx2    tot
  1  0.000  0.028  0.000  0.028  0.000  0.000  0.000  0.000  0.000  0.056
  2  0.000  0.028  0.000  0.028  0.000  0.000  0.000  0.000  0.000  0.057
  3  0.000  0.197  0.000  0.197  0.000  0.000  0.000  0.000  0.000  0.394
  4  0.000  0.197  0.000  0.197  0.000  0.000  0.000  0.000  0.000  0.394
tot  0.000  0.451  0.000  0.451  0.000  0.000  0.000  0.000  0.000  0.901
 
band  14 # energy    1.53056911 # occ.  1.00000000
 
ion      s     py     pz     px    dxy    dyz    dz2    dxz    dx2    tot
  1  0.031  0.000  0.000  0.000  0.120  0.258  0.000  0.258  0.000  0.668
  2  0.034  0.000  0.000  0.000  0.058  0.024  0.000  0.024  0.000  0.140
  3  0.000  0.030  0.025  0.030  0.000  0.000  0.000  0.000  0.000  0.085
  4  0.000  0.030  0.025  0.030  0.000  0.000  0.000  0.000  0.000  0.085
tot  0.065  0.060  0.050  0.060  0.178  0.282  0.000  0.282  0.000  0.978
 
band  15 # energy    2.83073899 # occ.  1.00000000
 
ion      s     py     pz     px    dxy    dyz    dz2    dxz    dx2    tot
  1  0.000  0.000  0.000  0.000  0.000  0.034  0.000  0.034  0.202  0.271
  2  0.000  0.000  0.000  0.000  0.000  0.012  0.000  0.012  0.146  0.171
  3  0.000  0.133  0.000  0.133  0.000  0.000  0.000  0.000  0.000  0.266
  4  0.000  0.133  0.000  0.133  0.000  0.000  0.000  0.000  0.000  0.266
tot  0.000  0.266  0.000  0.266  0.000  0.047  0.000  0.047  0.348  0.973
 
band  16 # energy    2.98513168 # occ.  1.00000000
 
ion      s     py     pz     px    dxy    dyz    dz2    dxz    dx2    tot
  1  0.000  0.000  0.000  0.000  0.031  0.010  0.166  0.010  0.000  0.216
  2  0.000  0.000  0.000  0.000  0.020  0.004  0.181  0.004  0.000  0.209
  3  0.007  0.045  0.180  0.045  0.000  0.000  0.000  0.000  0.000  0.276
  4  0.007  0.045  0.180  0.045  0.000  0.000  0.000  0.000  0.000  0.276
tot  0.014  0.089  0.359  0.089  0.051  0.014  0.347  0.014  0.000  0.977
 
band  17 # energy    7.80272315 # occ.  0.00000000
 
ion      s     py     pz     px    dxy    dyz    dz2    dxz    dx2    tot
  1  0.000  0.000  0.000  0.000  0.000  0.001  0.000  0.001  0.782  0.784
  2  0.000  0.000  0.000  0.000  0.000  0.000  0.000  0.000  0.025  0.025
  3  0.000  0.045  0.000  0.045  0.000  0.000  0.000  0.000  0.000  0.090
  4  0.000  0.045  0.000  0.045  0.000  0.000  0.000  0.000  0.000  0.090
tot  0.000  0.090  0.000  0.090  0.000  0.001  0.000  0.001  0.807  0.988
 
band  18 # energy    7.97902112 # occ.  0.00000000
 
ion      s     py     pz     px    dxy    dyz    dz2    dxz    dx2    tot
  1  0.001  0.000  0.000  0.000  0.000  0.000  0.787  0.000  0.000  0.788
  2  0.001  0.000  0.000  0.000  0.000  0.000  0.014  0.000  0.000  0.016
  3  0.010  0.014  0.055  0.014  0.000  0.000  0.000  0.000  0.000  0.093
  4  0.010  0.014  0.055  0.014  0.000  0.000  0.000  0.000  0.000  0.093
tot  0.022  0.027  0.110  0.027  0.001  0.000  0.801  0.000  0.000  0.990
 
band  19 # energy   10.88872235 # occ.  0.00000000
 
ion      s     py     pz     px    dxy    dyz    dz2    dxz    dx2    tot
  1  0.000  0.058  0.058  0.058  0.000  0.000  0.000  0.000  0.000  0.173
  2  0.000  0.060  0.059  0.060  0.000  0.000  0.000  0.000  0.000  0.179
  3  0.065  0.000  0.000  0.000  0.000  0.000  0.000  0.000  0.000  0.065
  4  0.065  0.000  0.000  0.000  0.000  0.000  0.000  0.000  0.000  0.065
tot  0.131  0.117  0.117  0.117  0.000  0.000  0.000  0.000  0.000  0.482
 
band  20 # energy   11.40217143 # occ.  0.00000000
 
ion      s     py     pz     px    dxy    dyz    dz2    dxz    dx2    tot
  1  0.339  0.000  0.000  0.000  0.000  0.000  0.008  0.000  0.000  0.347
  2  0.371  0.000  0.000  0.000  0.000  0.000  0.002  0.000  0.000  0.372
  3  0.023  0.000  0.000  0.000  0.000  0.000  0.000  0.000  0.000  0.023
  4  0.023  0.000  0.000  0.000  0.000  0.000  0.000  0.000  0.000  0.023
tot  0.755  0.001  0.000  0.001  0.000  0.000  0.009  0.000  0.000  0.766
 

 k-point    8 :    0.25000000 0.25000000 0.25000000     weight = 0.03125000

band   1 # energy  -14.27755333 # occ.  1.00000000
 
ion      s     py     pz     px    dxy    dyz    dz2    dxz    dx2    tot
  1  0.057  0.001  0.001  0.001  0.000  0.000  0.000  0.000  0.000  0.061
  2  0.059  0.001  0.001  0.001  0.000  0.000  0.000  0.000  0.000  0.063
  3  0.389  0.000  0.000  0.000  0.000  0.000  0.000  0.000  0.000  0.389
  4  0.389  0.000  0.000  0.000  0.000  0.000  0.000  0.000  0.000  0.389
tot  0.893  0.003  0.003  0.003  0.000  0.000  0.000  0.000  0.000  0.902
 
band   2 # energy  -13.19259661 # occ.  1.00000000
 
ion      s     py     pz     px    dxy    dyz    dz2    dxz    dx2    tot
  1  0.013  0.009  0.009  0.009  0.000  0.000  0.000  0.000  0.000  0.040
  2  0.013  0.009  0.009  0.009  0.000  0.000  0.000  0.000  0.000  0.040
  3  0.424  0.000  0.000  0.000  0.000  0.000  0.000  0.000  0.000  0.425
  4  0.424  0.000  0.000  0.000  0.000  0.000  0.000  0.000  0.000  0.425
tot  0.874  0.019  0.019  0.019  0.000  0.000  0.000  0.000  0.000  0.930
 
band   3 # energy   -3.04858563 # occ.  1.00000000
 
ion      s     py     pz     px    dxy    dyz    dz2    dxz    dx2    tot
  1  0.061  0.001  0.001  0.001  0.038  0.038  0.000  0.038  0.000  0.177
  2  0.064  0.001  0.001  0.001  0.090  0.090  0.000  0.090  0.000  0.335
  3  0.006  0.053  0.053  0.053  0.000  0.000  0.000  0.000  0.000  0.166
  4  0.006  0.053  0.053  0.053  0.000  0.000  0.000  0.000  0.000  0.166
tot  0.137  0.108  0.108  0.108  0.128  0.128  0.000  0.128  0.000  0.845
 
band   4 # energy   -2.71725176 # occ.  1.00000000
 
ion      s     py     pz     px    dxy    dyz    dz2    dxz    dx2    tot
  1  0.000  0.000  0.000  0.000  0.003  0.002  0.003  0.001  0.001  0.011
  2  0.000  0.000  0.000  0.000  0.015  0.012  0.607  0.003  0.191  0.828
  3  0.000  0.006  0.034  0.027  0.000  0.000  0.000  0.000  0.000  0.067
  4  0.000  0.006  0.034  0.027  0.000  0.000  0.000  0.000  0.000  0.067
tot  0.000  0.011  0.068  0.055  0.018  0.015  0.610  0.003  0.192  0.973
 
band   5 # energy   -2.71725176 # occ.  1.00000000
 
ion      s     py     pz     px    dxy    dyz    dz2    dxz    dx2    tot
  1  0.000  0.000  0.000  0.000  0.001  0.002  0.001  0.003  0.003  0.011
  2  0.000  0.000  0.000  0.000  0.005  0.008  0.191  0.018  0.607  0.828
  3  0.000  0.039  0.011  0.017  0.000  0.000  0.000  0.000  0.000  0.067
  4  0.000  0.039  0.011  0.017  0.000  0.000  0.000  0.000  0.000  0.067
tot  0.000  0.078  0.021  0.035  0.006  0.009  0.192  0.021  0.610  0.973
 
band   6 # energy   -0.90584758 # occ.  1.00000000
 
ion      s     py     pz     px    dxy    dyz    dz2    dxz    dx2    tot
  1  0.000  0.000  0.000  0.000  0.010  0.004  0.000  0.009  0.000  0.023
  2  0.000  0.000  0.000  0.000  0.385  0.149  0.026  0.368  0.014  0.942
  3  0.000  0.000  0.000  0.000  0.000  0.000  0.000  0.000  0.000  0.001
  4  0.000  0.000  0.000  0.000  0.000  0.000  0.000  0.000  0.000  0.001
tot  0.000  0.001  0.001  0.000  0.395  0.152  0.026  0.377  0.015  0.967
 
band   7 # energy   -0.90584758 # occ.  1.00000000
 
ion      s     py     pz     px    dxy    dyz    dz2    dxz    dx2    tot
  1  0.000  0.000  0.000  0.000  0.005  0.011  0.000  0.006  0.000  0.023
  2  0.000  0.000  0.000  0.000  0.216  0.452  0.014  0.233  0.026  0.942
  3  0.000  0.000  0.000  0.000  0.000  0.000  0.000  0.000  0.000  0.001
  4  0.000  0.000  0.000  0.000  0.000  0.000  0.000  0.000  0.000  0.001
tot  0.000  0.001  0.001  0.001  0.221  0.464  0.015  0.239  0.026  0.967
 
band   8 # energy   -0.85267290 # occ.  1.00000000
 
ion      s     py     pz     px    dxy    dyz    dz2    dxz    dx2    tot
  1  0.015  0.000  0.000  0.000  0.114  0.114  0.000  0.114  0.000  0.358
  2  0.001  0.001  0.001  0.001  0.162  0.162  0.000  0.162  0.000  0.490
  3  0.002  0.015  0.015  0.015  0.000  0.000  0.000  0.000  0.000  0.045
  4  0.002  0.015  0.015  0.015  0.000  0.000  0.000  0.000  0.000  0.045
tot  0.019  0.031  0.031  0.031  0.276  0.276  0.000  0.276  0.000  0.938
 
band   9 # energy    0.12690398 # occ.  1.00000000
 
ion      s     py     pz     px    dxy    dyz    dz2    dxz    dx2    tot
  1  0.000  0.000  0.000  0.000  0.466  0.234  0.012  0.140  0.002  0.855
  2  0.000  0.000  0.001  0.001  0.007  0.004  0.025  0.002  0.005  0.045
  3  0.000  0.005  0.017  0.008  0.000  0.000  0.000  0.000  0.000  0.031
  4  0.000  0.005  0.017  0.008  0.000  0.000  0.000  0.000  0.000  0.031
tot  0.000  0.010  0.035  0.018  0.474  0.238  0.037  0.142  0.007  0.961
 
band  10 # energy    0.12690398 # occ.  1.00000000
 
ion      s     py     pz     px    dxy    dyz    dz2    dxz    dx2    tot
  1  0.000  0.000  0.000  0.000  0.094  0.326  0.002  0.420  0.012  0.855
  2  0.000  0.001  0.000  0.001  0.001  0.005  0.005  0.007  0.025  0.045
  3  0.000  0.015  0.003  0.012  0.000  0.000  0.000  0.000  0.000  0.031
  4  0.000  0.015  0.003  0.012  0.000  0.000  0.000  0.000  0.000  0.031
tot  0.000  0.031  0.007  0.024  0.095  0.331  0.007  0.427  0.037  0.961
 
band  11 # energy    1.33935411 # occ.  1.00000000
 
ion      s     py     pz     px    dxy    dyz    dz2    dxz    dx2    tot
  1  0.019  0.000  0.000  0.000  0.125  0.125  0.000  0.125  0.000  0.395
  2  0.065  0.000  0.000  0.000  0.071  0.071  0.000  0.071  0.000  0.278
  3  0.006  0.045  0.045  0.045  0.000  0.000  0.000  0.000  0.000  0.140
  4  0.006  0.045  0.045  0.045  0.000  0.000  0.000  0.000  0.000  0.140
tot  0.096  0.090  0.090  0.090  0.196  0.196  0.000  0.196  0.000  0.954
 
band  12 # energy    2.03487953 # occ.  1.00000000
 
ion      s     py     pz     px    dxy    dyz    dz2    dxz    dx2    tot
  1  0.054  0.003  0.003  0.003  0.047  0.047  0.000  0.047  0.000  0.205
  2  0.021  0.003  0.003  0.003  0.003  0.003  0.000  0.003  0.000  0.039
  3  0.018  0.105  0.105  0.105  0.000  0.000  0.000  0.000  0.000  0.332
  4  0.018  0.105  0.105  0.105  0.000  0.000  0.000  0.000  0.000  0.332
tot  0.110  0.215  0.215  0.215  0.050  0.050  0.000  0.050  0.000  0.907
 
band  13 # energy    2.26711309 # occ.  1.00000000
 
ion      s     py     pz     px    dxy    dyz    dz2    dxz    dx2    tot
  1  0.000  0.000  0.001  0.002  0.025  0.063  0.064  0.009  0.099  0.262
  2  0.000  0.001  0.003  0.007  0.002  0.004  0.006  0.001  0.009  0.033
  3  0.000  0.029  0.086  0.213  0.000  0.000  0.000  0.000  0.000  0.328
  4  0.000  0.029  0.086  0.213  0.000  0.000  0.000  0.000  0.000  0.328
tot  0.000  0.059  0.175  0.435  0.027  0.067  0.069  0.009  0.108  0.950
 
band  14 # energy    2.26711309 # occ.  1.00000000
 
ion      s     py     pz     px    dxy    dyz    dz2    dxz    dx2    tot
  1  0.000  0.002  0.001  0.000  0.039  0.002  0.099  0.056  0.064  0.262
  2  0.000  0.006  0.005  0.000  0.003  0.000  0.009  0.004  0.006  0.033
  3  0.000  0.190  0.133  0.005  0.000  0.000  0.000  0.000  0.000  0.328
  4  0.000  0.190  0.133  0.005  0.000  0.000  0.000  0.000  0.000  0.328
tot  0.000  0.387  0.271  0.011  0.042  0.002  0.108  0.060  0.069  0.950
 
band  15 # energy    3.28931300 # occ.  1.00000000
 
ion      s     py     pz     px    dxy    dyz    dz2    dxz    dx2    tot
  1  0.000  0.006  0.003  0.008  0.001  0.002  0.010  0.002  0.029  0.061
  2  0.000  0.001  0.001  0.002  0.004  0.011  0.033  0.007  0.094  0.153
  3  0.000  0.125  0.063  0.181  0.000  0.000  0.000  0.000  0.000  0.369
  4  0.000  0.125  0.063  0.181  0.000  0.000  0.000  0.000  0.000  0.369
tot  0.000  0.257  0.130  0.372  0.005  0.013  0.043  0.009  0.123  0.952
 
band  16 # energy    3.28931300 # occ.  1.00000000
 
ion      s     py     pz     px    dxy    dyz    dz2    dxz    dx2    tot
  1  0.000  0.006  0.008  0.003  0.002  0.001  0.029  0.002  0.010  0.061
  2  0.000  0.001  0.002  0.001  0.011  0.004  0.094  0.007  0.033  0.153
  3  0.000  0.121  0.183  0.065  0.000  0.000  0.000  0.000  0.000  0.369
  4  0.000  0.121  0.183  0.065  0.000  0.000  0.000  0.000  0.000  0.369
tot  0.000  0.249  0.376  0.134  0.013  0.005  0.123  0.009  0.043  0.952
 
band  17 # energy    7.55350476 # occ.  0.00000000
 
ion      s     py     pz     px    dxy    dyz    dz2    dxz    dx2    tot
  1  0.000  0.000  0.000  0.000  0.000  0.000  0.158  0.001  0.610  0.769
  2  0.000  0.004  0.001  0.001  0.000  0.000  0.004  0.000  0.015  0.026
  3  0.000  0.059  0.012  0.019  0.000  0.000  0.000  0.000  0.000  0.090
  4  0.000  0.059  0.012  0.019  0.000  0.000  0.000  0.000  0.000  0.090
tot  0.000  0.122  0.026  0.039  0.000  0.000  0.162  0.001  0.625  0.976
 
band  18 # energy    7.55350476 # occ.  0.00000000
 
ion      s     py     pz     px    dxy    dyz    dz2    dxz    dx2    tot
  1  0.000  0.000  0.000  0.000  0.001  0.001  0.610  0.000  0.158  0.769
  2  0.000  0.000  0.003  0.003  0.000  0.000  0.015  0.000  0.004  0.026
  3  0.000  0.001  0.048  0.041  0.000  0.000  0.000  0.000  0.000  0.090
  4  0.000  0.001  0.048  0.041  0.000  0.000  0.000  0.000  0.000  0.090
tot  0.000  0.003  0.099  0.086  0.001  0.001  0.625  0.000  0.162  0.976
 
band  19 # energy    8.07450949 # occ.  0.00000000
 
ion      s     py     pz     px    dxy    dyz    dz2    dxz    dx2    tot
  1  0.156  0.006  0.006  0.006  0.000  0.000  0.000  0.000  0.000  0.174
  2  0.167  0.005  0.005  0.005  0.000  0.000  0.000  0.000  0.000  0.183
  3  0.117  0.024  0.024  0.024  0.000  0.000  0.000  0.000  0.000  0.188
  4  0.117  0.024  0.024  0.024  0.000  0.000  0.000  0.000  0.000  0.188
tot  0.556  0.059  0.059  0.059  0.000  0.000  0.000  0.000  0.000  0.734
 
band  20 # energy   10.74761619 # occ.  0.00000000
 
ion      s     py     pz     px    dxy    dyz    dz2    dxz    dx2    tot
  1  0.039  0.043  0.043  0.043  0.002  0.002  0.000  0.002  0.000  0.173
  2  0.035  0.046  0.046  0.046  0.001  0.001  0.000  0.001  0.000  0.177
  3  0.072  0.015  0.015  0.015  0.000  0.000  0.000  0.000  0.000  0.118
  4  0.072  0.015  0.015  0.015  0.000  0.000  0.000  0.000  0.000  0.118
tot  0.218  0.119  0.119  0.119  0.003  0.003  0.000  0.003  0.000  0.586
 

 k-point    9 :    0.50000000 0.25000000 0.25000000     weight = 0.09375000

band   1 # energy  -13.65044244 # occ.  1.00000000
 
ion      s     py     pz     px    dxy    dyz    dz2    dxz    dx2    tot
  1  0.035  0.000  0.000  0.011  0.000  0.000  0.001  0.000  0.003  0.051
  2  0.031  0.000  0.000  0.012  0.000  0.000  0.003  0.000  0.010  0.056
  3  0.407  0.000  0.000  0.001  0.000  0.000  0.000  0.000  0.000  0.408
  4  0.407  0.000  0.000  0.001  0.000  0.000  0.000  0.000  0.000  0.408
tot  0.880  0.000  0.000  0.025  0.000  0.000  0.004  0.000  0.013  0.922
 
band   2 # energy  -13.09654852 # occ.  1.00000000
 
ion      s     py     pz     px    dxy    dyz    dz2    dxz    dx2    tot
  1  0.006  0.011  0.011  0.000  0.000  0.000  0.002  0.000  0.005  0.035
  2  0.014  0.011  0.011  0.000  0.000  0.000  0.003  0.000  0.009  0.047
  3  0.427  0.000  0.000  0.000  0.000  0.000  0.000  0.000  0.000  0.427
  4  0.427  0.000  0.000  0.000  0.000  0.000  0.000  0.000  0.000  0.427
tot  0.873  0.023  0.023  0.000  0.000  0.000  0.005  0.000  0.014  0.938
 
band   3 # energy   -3.21599910 # occ.  1.00000000
 
ion      s     py     pz     px    dxy    dyz    dz2    dxz    dx2    tot
  1  0.052  0.001  0.001  0.002  0.000  0.026  0.000  0.000  0.000  0.081
  2  0.006  0.001  0.001  0.002  0.000  0.061  0.129  0.000  0.386  0.586
  3  0.000  0.042  0.042  0.043  0.000  0.000  0.000  0.000  0.000  0.127
  4  0.000  0.042  0.042  0.043  0.000  0.000  0.000  0.000  0.000  0.127
tot  0.058  0.085  0.085  0.090  0.000  0.087  0.129  0.000  0.386  0.920
 
band   4 # energy   -2.62076281 # occ.  1.00000000
 
ion      s     py     pz     px    dxy    dyz    dz2    dxz    dx2    tot
  1  0.000  0.000  0.000  0.000  0.000  0.000  0.007  0.000  0.002  0.010
  2  0.000  0.000  0.000  0.000  0.000  0.000  0.621  0.000  0.207  0.829
  3  0.000  0.034  0.034  0.000  0.000  0.000  0.000  0.000  0.000  0.069
  4  0.000  0.034  0.034  0.000  0.000  0.000  0.000  0.000  0.000  0.069
tot  0.000  0.069  0.069  0.000  0.000  0.000  0.628  0.000  0.209  0.976
 
band   5 # energy   -1.82087890 # occ.  1.00000000
 
ion      s     py     pz     px    dxy    dyz    dz2    dxz    dx2    tot
  1  0.003  0.000  0.000  0.003  0.000  0.024  0.009  0.000  0.027  0.065
  2  0.064  0.000  0.000  0.003  0.000  0.335  0.038  0.000  0.115  0.556
  3  0.009  0.034  0.034  0.063  0.000  0.000  0.000  0.000  0.000  0.139
  4  0.009  0.034  0.034  0.063  0.000  0.000  0.000  0.000  0.000  0.139
tot  0.084  0.068  0.068  0.131  0.000  0.359  0.047  0.000  0.142  0.899
 
band   6 # energy   -1.66924894 # occ.  1.00000000
 
ion      s     py     pz     px    dxy    dyz    dz2    dxz    dx2    tot
  1  0.000  0.000  0.000  0.020  0.051  0.000  0.000  0.051  0.000  0.122
  2  0.000  0.000  0.000  0.020  0.293  0.000  0.000  0.293  0.000  0.607
  3  0.000  0.001  0.001  0.086  0.000  0.000  0.000  0.000  0.000  0.088
  4  0.000  0.001  0.001  0.086  0.000  0.000  0.000  0.000  0.000  0.088
tot  0.000  0.003  0.003  0.212  0.344  0.000  0.000  0.344  0.000  0.906
 
band   7 # energy   -0.93654296 # occ.  1.00000000
 
ion      s     py     pz     px    dxy    dyz    dz2    dxz    dx2    tot
  1  0.003  0.000  0.000  0.000  0.000  0.385  0.003  0.000  0.009  0.400
  2  0.022  0.000  0.000  0.001  0.000  0.401  0.001  0.000  0.002  0.427
  3  0.002  0.016  0.016  0.013  0.000  0.000  0.000  0.000  0.000  0.046
  4  0.002  0.016  0.016  0.013  0.000  0.000  0.000  0.000  0.000  0.046
tot  0.029  0.032  0.032  0.027  0.000  0.786  0.004  0.000  0.011  0.920
 
band   8 # energy   -0.84057932 # occ.  1.00000000
 
ion      s     py     pz     px    dxy    dyz    dz2    dxz    dx2    tot
  1  0.000  0.002  0.002  0.000  0.009  0.000  0.000  0.009  0.000  0.022
  2  0.000  0.002  0.002  0.000  0.442  0.000  0.000  0.442  0.000  0.888
  3  0.000  0.014  0.014  0.000  0.000  0.000  0.000  0.000  0.000  0.028
  4  0.000  0.014  0.014  0.000  0.000  0.000  0.000  0.000  0.000  0.028
tot  0.000  0.031  0.031  0.000  0.451  0.000  0.000  0.451  0.000  0.965
 
band   9 # energy   -0.36298474 # occ.  1.00000000
 
ion      s     py     pz     px    dxy    dyz    dz2    dxz    dx2    tot
  1  0.000  0.003  0.003  0.006  0.269  0.000  0.000  0.269  0.000  0.551
  2  0.000  0.003  0.003  0.006  0.108  0.000  0.000  0.108  0.000  0.229
  3  0.000  0.026  0.026  0.029  0.000  0.000  0.000  0.000  0.000  0.081
  4  0.000  0.026  0.026  0.029  0.000  0.000  0.000  0.000  0.000  0.081
tot  0.000  0.059  0.059  0.069  0.377  0.000  0.000  0.377  0.000  0.942
 
band  10 # energy    0.29562616 # occ.  1.00000000
 
ion      s     py     pz     px    dxy    dyz    dz2    dxz    dx2    tot
  1  0.000  0.002  0.002  0.000  0.418  0.000  0.000  0.418  0.000  0.839
  2  0.000  0.002  0.002  0.000  0.024  0.000  0.000  0.024  0.000  0.053
  3  0.000  0.018  0.018  0.000  0.000  0.000  0.000  0.000  0.000  0.036
  4  0.000  0.018  0.018  0.000  0.000  0.000  0.000  0.000  0.000  0.036
tot  0.000  0.040  0.040  0.000  0.442  0.000  0.000  0.442  0.000  0.965
 
band  11 # energy    0.72226640 # occ.  1.00000000
 
ion      s     py     pz     px    dxy    dyz    dz2    dxz    dx2    tot
  1  0.012  0.000  0.000  0.004  0.000  0.292  0.012  0.000  0.035  0.355
  2  0.045  0.000  0.000  0.004  0.000  0.072  0.038  0.000  0.114  0.274
  3  0.016  0.007  0.007  0.119  0.000  0.000  0.000  0.000  0.000  0.149
  4  0.016  0.007  0.007  0.119  0.000  0.000  0.000  0.000  0.000  0.149
tot  0.090  0.014  0.014  0.247  0.000  0.365  0.050  0.000  0.149  0.927
 
band  12 # energy    1.54725957 # occ.  1.00000000
 
ion      s     py     pz     px    dxy    dyz    dz2    dxz    dx2    tot
  1  0.091  0.000  0.000  0.002  0.000  0.232  0.000  0.000  0.001  0.327
  2  0.005  0.000  0.000  0.002  0.000  0.096  0.042  0.000  0.126  0.270
  3  0.018  0.047  0.047  0.054  0.000  0.000  0.000  0.000  0.000  0.166
  4  0.018  0.047  0.047  0.054  0.000  0.000  0.000  0.000  0.000  0.166
tot  0.131  0.094  0.094  0.112  0.000  0.328  0.042  0.000  0.126  0.929
 
band  13 # energy    2.14777736 # occ.  1.00000000
 
ion      s     py     pz     px    dxy    dyz    dz2    dxz    dx2    tot
  1  0.000  0.003  0.003  0.029  0.057  0.000  0.000  0.057  0.000  0.149
  2  0.000  0.003  0.003  0.030  0.088  0.000  0.000  0.088  0.000  0.212
  3  0.000  0.037  0.037  0.220  0.000  0.000  0.000  0.000  0.000  0.293
  4  0.000  0.037  0.037  0.220  0.000  0.000  0.000  0.000  0.000  0.293
tot  0.000  0.080  0.080  0.499  0.145  0.000  0.000  0.145  0.000  0.948
 
band  14 # energy    2.48213954 # occ.  1.00000000
 
ion      s     py     pz     px    dxy    dyz    dz2    dxz    dx2    tot
  1  0.000  0.000  0.000  0.000  0.001  0.000  0.157  0.001  0.052  0.212
  2  0.000  0.002  0.002  0.000  0.000  0.000  0.129  0.000  0.043  0.178
  3  0.000  0.141  0.141  0.000  0.000  0.000  0.000  0.000  0.000  0.282
  4  0.000  0.141  0.141  0.000  0.000  0.000  0.000  0.000  0.000  0.282
tot  0.000  0.284  0.284  0.000  0.001  0.000  0.286  0.001  0.095  0.953
 
band  15 # energy    2.51840294 # occ.  1.00000000
 
ion      s     py     pz     px    dxy    dyz    dz2    dxz    dx2    tot
  1  0.000  0.015  0.015  0.000  0.063  0.000  0.003  0.063  0.001  0.160
  2  0.000  0.013  0.013  0.000  0.025  0.000  0.002  0.025  0.001  0.079
  3  0.000  0.176  0.176  0.000  0.000  0.000  0.000  0.000  0.000  0.353
  4  0.000  0.176  0.176  0.000  0.000  0.000  0.000  0.000  0.000  0.353
tot  0.000  0.381  0.381  0.000  0.088  0.000  0.005  0.088  0.002  0.943
 
band  16 # energy    2.57327547 # occ.  1.00000000
 
ion      s     py     pz     px    dxy    dyz    dz2    dxz    dx2    tot
  1  0.000  0.012  0.012  0.004  0.116  0.000  0.000  0.116  0.000  0.259
  2  0.000  0.012  0.012  0.005  0.004  0.000  0.000  0.004  0.000  0.037
  3  0.000  0.145  0.145  0.037  0.000  0.000  0.000  0.000  0.000  0.327
  4  0.000  0.145  0.145  0.037  0.000  0.000  0.000  0.000  0.000  0.327
tot  0.000  0.313  0.313  0.084  0.120  0.000  0.000  0.120  0.000  0.949
 
band  17 # energy    6.93725111 # occ.  0.00000000
 
ion      s     py     pz     px    dxy    dyz    dz2    dxz    dx2    tot
  1  0.005  0.000  0.000  0.000  0.000  0.000  0.203  0.000  0.610  0.819
  2  0.059  0.000  0.000  0.001  0.000  0.000  0.000  0.000  0.000  0.059
  3  0.027  0.000  0.000  0.002  0.000  0.000  0.000  0.000  0.000  0.030
  4  0.027  0.000  0.000  0.002  0.000  0.000  0.000  0.000  0.000  0.030
tot  0.118  0.001  0.001  0.004  0.000  0.000  0.203  0.000  0.610  0.938
 
band  18 # energy    7.71244137 # occ.  0.00000000
 
ion      s     py     pz     px    dxy    dyz    dz2    dxz    dx2    tot
  1  0.000  0.000  0.000  0.000  0.000  0.000  0.581  0.000  0.194  0.775
  2  0.000  0.000  0.000  0.000  0.000  0.000  0.022  0.000  0.007  0.029
  3  0.000  0.045  0.045  0.000  0.000  0.000  0.000  0.000  0.000  0.090
  4  0.000  0.045  0.045  0.000  0.000  0.000  0.000  0.000  0.000  0.090
tot  0.000  0.090  0.090  0.000  0.000  0.000  0.603  0.000  0.201  0.984
 
band  19 # energy   10.99767285 # occ.  0.00000000
 
ion      s     py     pz     px    dxy    dyz    dz2    dxz    dx2    tot
  1  0.151  0.000  0.000  0.009  0.000  0.000  0.016  0.000  0.049  0.226
  2  0.112  0.000  0.000  0.010  0.000  0.000  0.006  0.000  0.019  0.147
  3  0.056  0.000  0.000  0.164  0.000  0.000  0.000  0.000  0.000  0.221
  4  0.056  0.000  0.000  0.164  0.000  0.000  0.000  0.000  0.000  0.221
tot  0.375  0.000  0.000  0.348  0.000  0.000  0.023  0.000  0.068  0.815
 
band  20 # energy   12.48966223 # occ.  0.00000000
 
ion      s     py     pz     px    dxy    dyz    dz2    dxz    dx2    tot
  1  0.047  0.044  0.044  0.000  0.000  0.003  0.004  0.000  0.013  0.158
  2  0.059  0.047  0.047  0.000  0.000  0.003  0.002  0.000  0.005  0.162
  3  0.049  0.069  0.069  0.001  0.000  0.000  0.000  0.000  0.000  0.188
  4  0.049  0.069  0.069  0.001  0.000  0.000  0.000  0.000  0.000  0.188
tot  0.205  0.229  0.229  0.002  0.000  0.006  0.006  0.000  0.018  0.696
 

 k-point   10 :   -0.25000000 0.25000000 0.25000000     weight = 0.09375000

band   1 # energy  -13.05070681 # occ.  1.00000000
 
ion      s     py     pz     px    dxy    dyz    dz2    dxz    dx2    tot
  1  0.002  0.008  0.008  0.009  0.000  0.000  0.001  0.000  0.004  0.032
  2  0.008  0.001  0.001  0.001  0.000  0.000  0.014  0.000  0.041  0.065
  3  0.428  0.000  0.000  0.000  0.000  0.000  0.000  0.000  0.000  0.428
  4  0.428  0.000  0.000  0.000  0.000  0.000  0.000  0.000  0.000  0.428
tot  0.864  0.009  0.009  0.010  0.000  0.000  0.015  0.000  0.045  0.952
 
band   2 # energy  -12.86216477 # occ.  1.00000000
 
ion      s     py     pz     px    dxy    dyz    dz2    dxz    dx2    tot
  1  0.007  0.003  0.003  0.002  0.000  0.000  0.005  0.000  0.015  0.035
  2  0.000  0.010  0.010  0.011  0.000  0.000  0.001  0.000  0.004  0.037
  3  0.437  0.000  0.000  0.000  0.000  0.000  0.000  0.000  0.000  0.437
  4  0.437  0.000  0.000  0.000  0.000  0.000  0.000  0.000  0.000  0.437
tot  0.880  0.013  0.013  0.014  0.000  0.000  0.006  0.000  0.019  0.945
 
band   3 # energy   -3.26457993 # occ.  1.00000000
 
ion      s     py     pz     px    dxy    dyz    dz2    dxz    dx2    tot
  1  0.062  0.002  0.002  0.006  0.037  0.033  0.000  0.037  0.000  0.178
  2  0.072  0.001  0.001  0.002  0.073  0.089  0.001  0.073  0.004  0.316
  3  0.001  0.050  0.050  0.069  0.000  0.000  0.000  0.000  0.000  0.170
  4  0.001  0.050  0.050  0.069  0.000  0.000  0.000  0.000  0.000  0.170
tot  0.135  0.104  0.104  0.145  0.110  0.122  0.001  0.110  0.004  0.834
 
band   4 # energy   -2.64560716 # occ.  1.00000000
 
ion      s     py     pz     px    dxy    dyz    dz2    dxz    dx2    tot
  1  0.000  0.002  0.002  0.000  0.004  0.000  0.005  0.004  0.002  0.017
  2  0.000  0.000  0.000  0.000  0.014  0.000  0.584  0.014  0.195  0.807
  3  0.000  0.037  0.037  0.000  0.000  0.000  0.000  0.000  0.000  0.075
  4  0.000  0.037  0.037  0.000  0.000  0.000  0.000  0.000  0.000  0.075
tot  0.000  0.077  0.077  0.000  0.018  0.000  0.589  0.018  0.196  0.974
 
band   5 # energy   -2.57074904 # occ.  1.00000000
 
ion      s     py     pz     px    dxy    dyz    dz2    dxz    dx2    tot
  1  0.003  0.002  0.002  0.026  0.000  0.006  0.002  0.000  0.006  0.047
  2  0.000  0.000  0.000  0.005  0.008  0.055  0.147  0.008  0.440  0.663
  3  0.008  0.016  0.016  0.077  0.000  0.000  0.000  0.000  0.000  0.117
  4  0.008  0.016  0.016  0.077  0.000  0.000  0.000  0.000  0.000  0.117
tot  0.019  0.033  0.033  0.186  0.008  0.061  0.149  0.008  0.446  0.943
 
band   6 # energy   -1.60706405 # occ.  1.00000000
 
ion      s     py     pz     px    dxy    dyz    dz2    dxz    dx2    tot
  1  0.017  0.003  0.003  0.020  0.029  0.104  0.001  0.029  0.003  0.210
  2  0.001  0.003  0.003  0.037  0.003  0.357  0.000  0.003  0.001  0.408
  3  0.001  0.014  0.014  0.097  0.000  0.000  0.000  0.000  0.000  0.127
  4  0.001  0.014  0.014  0.097  0.000  0.000  0.000  0.000  0.000  0.127
tot  0.021  0.034  0.034  0.251  0.033  0.461  0.002  0.033  0.005  0.872
 
band   7 # energy   -1.20001787 # occ.  1.00000000
 
ion      s     py     pz     px    dxy    dyz    dz2    dxz    dx2    tot
  1  0.001  0.000  0.000  0.026  0.012  0.130  0.005  0.012  0.014  0.200
  2  0.003  0.001  0.001  0.045  0.030  0.213  0.025  0.030  0.074  0.421
  3  0.005  0.005  0.005  0.119  0.000  0.000  0.000  0.000  0.000  0.133
  4  0.005  0.005  0.005  0.119  0.000  0.000  0.000  0.000  0.000  0.133
tot  0.014  0.010  0.010  0.309  0.042  0.343  0.029  0.042  0.088  0.888
 
band   8 # energy   -0.47474713 # occ.  1.00000000
 
ion      s     py     pz     px    dxy    dyz    dz2    dxz    dx2    tot
  1  0.000  0.000  0.000  0.000  0.008  0.000  0.001  0.008  0.000  0.018
  2  0.000  0.000  0.000  0.000  0.451  0.000  0.045  0.451  0.015  0.961
  3  0.000  0.001  0.001  0.000  0.000  0.000  0.000  0.000  0.000  0.003
  4  0.000  0.001  0.001  0.000  0.000  0.000  0.000  0.000  0.000  0.003
tot  0.000  0.003  0.003  0.000  0.459  0.000  0.046  0.459  0.015  0.985
 
band   9 # energy   -0.39757813 # occ.  1.00000000
 
ion      s     py     pz     px    dxy    dyz    dz2    dxz    dx2    tot
  1  0.002  0.001  0.001  0.001  0.002  0.273  0.002  0.002  0.007  0.290
  2  0.000  0.004  0.004  0.006  0.196  0.101  0.014  0.196  0.043  0.563
  3  0.001  0.017  0.017  0.016  0.000  0.000  0.000  0.000  0.000  0.051
  4  0.001  0.017  0.017  0.016  0.000  0.000  0.000  0.000  0.000  0.051
tot  0.005  0.038  0.038  0.040  0.198  0.374  0.017  0.198  0.050  0.956
 
band  10 # energy    0.46733513 # occ.  1.00000000
 
ion      s     py     pz     px    dxy    dyz    dz2    dxz    dx2    tot
  1  0.000  0.002  0.002  0.000  0.342  0.000  0.019  0.342  0.006  0.714
  2  0.000  0.007  0.007  0.000  0.014  0.000  0.007  0.014  0.002  0.052
  3  0.000  0.048  0.048  0.000  0.000  0.000  0.000  0.000  0.000  0.097
  4  0.000  0.048  0.048  0.000  0.000  0.000  0.000  0.000  0.000  0.097
tot  0.000  0.106  0.106  0.000  0.356  0.000  0.026  0.356  0.009  0.960
 
band  11 # energy    0.58103055 # occ.  1.00000000
 
ion      s     py     pz     px    dxy    dyz    dz2    dxz    dx2    tot
  1  0.003  0.000  0.000  0.015  0.112  0.191  0.000  0.112  0.000  0.435
  2  0.018  0.000  0.000  0.005  0.143  0.062  0.008  0.143  0.025  0.404
  3  0.002  0.007  0.007  0.048  0.000  0.000  0.000  0.000  0.000  0.064
  4  0.002  0.007  0.007  0.048  0.000  0.000  0.000  0.000  0.000  0.064
tot  0.025  0.014  0.014  0.116  0.255  0.253  0.008  0.255  0.025  0.966
 
band  12 # energy    1.20536833 # occ.  1.00000000
 
ion      s     py     pz     px    dxy    dyz    dz2    dxz    dx2    tot
  1  0.000  0.014  0.014  0.000  0.081  0.028  0.004  0.081  0.012  0.235
  2  0.037  0.012  0.012  0.005  0.037  0.037  0.001  0.037  0.004  0.183
  3  0.000  0.112  0.112  0.031  0.000  0.000  0.000  0.000  0.000  0.255
  4  0.000  0.112  0.112  0.031  0.000  0.000  0.000  0.000  0.000  0.255
tot  0.037  0.250  0.250  0.068  0.119  0.065  0.005  0.119  0.015  0.929
 
band  13 # energy    1.59841968 # occ.  1.00000000
 
ion      s     py     pz     px    dxy    dyz    dz2    dxz    dx2    tot
  1  0.000  0.012  0.012  0.000  0.125  0.000  0.037  0.125  0.012  0.323
  2  0.000  0.020  0.020  0.000  0.002  0.000  0.003  0.002  0.001  0.047
  3  0.000  0.142  0.142  0.000  0.000  0.000  0.000  0.000  0.000  0.284
  4  0.000  0.142  0.142  0.000  0.000  0.000  0.000  0.000  0.000  0.284
tot  0.000  0.316  0.316  0.000  0.126  0.000  0.040  0.126  0.013  0.938
 
band  14 # energy    1.62358486 # occ.  1.00000000
 
ion      s     py     pz     px    dxy    dyz    dz2    dxz    dx2    tot
  1  0.045  0.002  0.002  0.000  0.214  0.155  0.001  0.214  0.003  0.637
  2  0.005  0.007  0.007  0.001  0.003  0.013  0.000  0.003  0.000  0.039
  3  0.000  0.067  0.067  0.010  0.000  0.000  0.000  0.000  0.000  0.144
  4  0.000  0.067  0.067  0.010  0.000  0.000  0.000  0.000  0.000  0.144
tot  0.050  0.142  0.142  0.022  0.218  0.167  0.001  0.218  0.003  0.964
 
band  15 # energy    2.69836954 # occ.  1.00000000
 
ion      s     py     pz     px    dxy    dyz    dz2    dxz    dx2    tot
  1  0.000  0.005  0.005  0.018  0.009  0.027  0.023  0.009  0.070  0.168
  2  0.001  0.000  0.000  0.003  0.003  0.032  0.049  0.003  0.148  0.240
  3  0.008  0.055  0.055  0.155  0.000  0.000  0.000  0.000  0.000  0.273
  4  0.008  0.055  0.055  0.155  0.000  0.000  0.000  0.000  0.000  0.273
tot  0.017  0.115  0.115  0.331  0.013  0.059  0.073  0.013  0.218  0.953
 
band  16 # energy    2.88342056 # occ.  1.00000000
 
ion      s     py     pz     px    dxy    dyz    dz2    dxz    dx2    tot
  1  0.000  0.013  0.013  0.000  0.017  0.000  0.081  0.017  0.027  0.167
  2  0.000  0.000  0.000  0.000  0.015  0.000  0.124  0.015  0.041  0.195
  3  0.000  0.149  0.149  0.000  0.000  0.000  0.000  0.000  0.000  0.299
  4  0.000  0.149  0.149  0.000  0.000  0.000  0.000  0.000  0.000  0.299
tot  0.000  0.312  0.312  0.000  0.031  0.000  0.205  0.031  0.068  0.959
 
band  17 # energy    7.67476562 # occ.  0.00000000
 
ion      s     py     pz     px    dxy    dyz    dz2    dxz    dx2    tot
  1  0.000  0.000  0.000  0.000  0.001  0.000  0.608  0.001  0.203  0.812
  2  0.000  0.004  0.004  0.000  0.000  0.000  0.009  0.000  0.003  0.021
  3  0.000  0.037  0.037  0.000  0.000  0.000  0.000  0.000  0.000  0.074
  4  0.000  0.037  0.037  0.000  0.000  0.000  0.000  0.000  0.000  0.074
tot  0.000  0.078  0.078  0.000  0.001  0.000  0.618  0.001  0.206  0.982
 
band  18 # energy    7.74178780 # occ.  0.00000000
 
ion      s     py     pz     px    dxy    dyz    dz2    dxz    dx2    tot
  1  0.000  0.001  0.001  0.002  0.000  0.001  0.203  0.000  0.609  0.817
  2  0.000  0.004  0.004  0.009  0.000  0.000  0.001  0.000  0.004  0.023
  3  0.017  0.010  0.010  0.028  0.000  0.000  0.000  0.000  0.000  0.065
  4  0.017  0.010  0.010  0.028  0.000  0.000  0.000  0.000  0.000  0.065
tot  0.035  0.024  0.024  0.067  0.000  0.002  0.204  0.000  0.613  0.969
 
band  19 # energy   11.76001076 # occ.  0.00000000
 
ion      s     py     pz     px    dxy    dyz    dz2    dxz    dx2    tot
  1  0.002  0.058  0.058  0.036  0.000  0.004  0.003  0.000  0.008  0.169
  2  0.052  0.042  0.042  0.041  0.000  0.007  0.002  0.000  0.006  0.191
  3  0.052  0.001  0.001  0.045  0.000  0.000  0.000  0.000  0.000  0.100
  4  0.052  0.001  0.001  0.045  0.000  0.000  0.000  0.000  0.000  0.100
tot  0.157  0.103  0.103  0.167  0.000  0.011  0.005  0.000  0.014  0.559
 
band  20 # energy   12.00657911 # occ.  0.00000000
 
ion      s     py     pz     px    dxy    dyz    dz2    dxz    dx2    tot
  1  0.301  0.000  0.000  0.007  0.000  0.002  0.003  0.000  0.009  0.322
  2  0.288  0.017  0.017  0.000  0.000  0.000  0.000  0.000  0.001  0.323
  3  0.023  0.008  0.008  0.019  0.000  0.000  0.000  0.000  0.000  0.058
  4  0.023  0.008  0.008  0.019  0.000  0.000  0.000  0.000  0.000  0.058
tot  0.636  0.033  0.033  0.046  0.000  0.002  0.003  0.000  0.009  0.762
 

 k-point   11 :    0.50000000 0.50000000 0.25000000     weight = 0.09375000

band   1 # energy  -13.47609029 # occ.  1.00000000
 
ion      s     py     pz     px    dxy    dyz    dz2    dxz    dx2    tot
  1  0.032  0.008  0.003  0.008  0.000  0.000  0.000  0.000  0.000  0.050
  2  0.019  0.010  0.000  0.010  0.000  0.000  0.006  0.000  0.000  0.046
  3  0.413  0.001  0.000  0.001  0.000  0.000  0.000  0.000  0.000  0.414
  4  0.413  0.001  0.000  0.001  0.000  0.000  0.000  0.000  0.000  0.414
tot  0.877  0.019  0.003  0.019  0.000  0.000  0.007  0.000  0.000  0.925
 
band   2 # energy  -13.28026831 # occ.  1.00000000
 
ion      s     py     pz     px    dxy    dyz    dz2    dxz    dx2    tot
  1  0.011  0.003  0.009  0.003  0.000  0.000  0.011  0.000  0.000  0.037
  2  0.026  0.000  0.012  0.000  0.000  0.000  0.019  0.000  0.000  0.058
  3  0.419  0.000  0.001  0.000  0.000  0.000  0.000  0.000  0.000  0.420
  4  0.419  0.000  0.001  0.000  0.000  0.000  0.000  0.000  0.000  0.420
tot  0.877  0.003  0.022  0.003  0.000  0.000  0.030  0.000  0.000  0.936
 
band   3 # energy   -3.05776858 # occ.  1.00000000
 
ion      s     py     pz     px    dxy    dyz    dz2    dxz    dx2    tot
  1  0.039  0.000  0.009  0.000  0.013  0.000  0.000  0.000  0.000  0.062
  2  0.000  0.000  0.009  0.000  0.028  0.009  0.570  0.009  0.000  0.624
  3  0.001  0.023  0.075  0.023  0.000  0.000  0.000  0.000  0.000  0.121
  4  0.001  0.023  0.075  0.023  0.000  0.000  0.000  0.000  0.000  0.121
tot  0.040  0.045  0.169  0.045  0.041  0.009  0.570  0.009  0.000  0.929
 
band   4 # energy   -2.61028419 # occ.  1.00000000
 
ion      s     py     pz     px    dxy    dyz    dz2    dxz    dx2    tot
  1  0.000  0.000  0.000  0.000  0.000  0.003  0.000  0.003  0.005  0.012
  2  0.000  0.000  0.000  0.000  0.000  0.000  0.000  0.000  0.831  0.832
  3  0.000  0.033  0.000  0.033  0.000  0.000  0.000  0.000  0.000  0.066
  4  0.000  0.033  0.000  0.033  0.000  0.000  0.000  0.000  0.000  0.066
tot  0.000  0.067  0.000  0.067  0.000  0.003  0.000  0.003  0.836  0.976
 
band   5 # energy   -2.01061187 # occ.  1.00000000
 
ion      s     py     pz     px    dxy    dyz    dz2    dxz    dx2    tot
  1  0.007  0.001  0.015  0.001  0.013  0.056  0.011  0.056  0.000  0.160
  2  0.061  0.000  0.000  0.000  0.259  0.038  0.039  0.038  0.000  0.435
  3  0.008  0.036  0.064  0.036  0.000  0.000  0.000  0.000  0.000  0.144
  4  0.008  0.036  0.064  0.036  0.000  0.000  0.000  0.000  0.000  0.144
tot  0.084  0.073  0.142  0.073  0.271  0.094  0.050  0.094  0.000  0.882
 
band   6 # energy   -1.66429388 # occ.  1.00000000
 
ion      s     py     pz     px    dxy    dyz    dz2    dxz    dx2    tot
  1  0.010  0.002  0.001  0.002  0.044  0.002  0.004  0.002  0.000  0.066
  2  0.004  0.003  0.009  0.003  0.202  0.222  0.032  0.222  0.000  0.697
  3  0.003  0.018  0.037  0.018  0.000  0.000  0.000  0.000  0.000  0.076
  4  0.003  0.018  0.037  0.018  0.000  0.000  0.000  0.000  0.000  0.076
tot  0.020  0.040  0.085  0.040  0.246  0.224  0.036  0.224  0.000  0.915
 
band   7 # energy   -0.85080291 # occ.  1.00000000
 
ion      s     py     pz     px    dxy    dyz    dz2    dxz    dx2    tot
  1  0.001  0.000  0.002  0.000  0.356  0.001  0.024  0.001  0.000  0.385
  2  0.028  0.000  0.006  0.000  0.201  0.061  0.009  0.061  0.000  0.367
  3  0.005  0.022  0.034  0.022  0.000  0.000  0.000  0.000  0.000  0.082
  4  0.005  0.022  0.034  0.022  0.000  0.000  0.000  0.000  0.000  0.082
tot  0.039  0.044  0.075  0.044  0.558  0.061  0.033  0.061  0.000  0.915
 
band   8 # energy   -0.83255382 # occ.  1.00000000
 
ion      s     py     pz     px    dxy    dyz    dz2    dxz    dx2    tot
  1  0.000  0.001  0.000  0.001  0.000  0.000  0.000  0.000  0.005  0.007
  2  0.000  0.002  0.000  0.002  0.000  0.452  0.000  0.452  0.000  0.908
  3  0.000  0.013  0.000  0.013  0.000  0.000  0.000  0.000  0.000  0.026
  4  0.000  0.013  0.000  0.013  0.000  0.000  0.000  0.000  0.000  0.026
tot  0.000  0.029  0.000  0.029  0.000  0.452  0.000  0.452  0.005  0.967
 
band   9 # energy   -0.37569030 # occ.  1.00000000
 
ion      s     py     pz     px    dxy    dyz    dz2    dxz    dx2    tot
  1  0.012  0.002  0.005  0.002  0.110  0.184  0.001  0.184  0.000  0.501
  2  0.003  0.003  0.001  0.003  0.155  0.000  0.108  0.000  0.000  0.275
  3  0.005  0.029  0.018  0.029  0.000  0.000  0.000  0.000  0.000  0.081
  4  0.005  0.029  0.018  0.029  0.000  0.000  0.000  0.000  0.000  0.081
tot  0.025  0.064  0.041  0.064  0.265  0.185  0.109  0.185  0.000  0.939
 
band  10 # energy    0.30904381 # occ.  1.00000000
 
ion      s     py     pz     px    dxy    dyz    dz2    dxz    dx2    tot
  1  0.000  0.003  0.000  0.003  0.000  0.421  0.000  0.421  0.003  0.852
  2  0.000  0.002  0.000  0.002  0.000  0.002  0.000  0.002  0.017  0.027
  3  0.000  0.021  0.000  0.021  0.000  0.000  0.000  0.000  0.000  0.042
  4  0.000  0.021  0.000  0.021  0.000  0.000  0.000  0.000  0.000  0.042
tot  0.000  0.047  0.000  0.047  0.000  0.424  0.000  0.424  0.020  0.963
 
band  11 # energy    0.65665471 # occ.  1.00000000
 
ion      s     py     pz     px    dxy    dyz    dz2    dxz    dx2    tot
  1  0.018  0.000  0.004  0.000  0.059  0.091  0.045  0.091  0.000  0.308
  2  0.014  0.000  0.024  0.000  0.008  0.103  0.089  0.103  0.000  0.342
  3  0.009  0.001  0.132  0.001  0.000  0.000  0.000  0.000  0.000  0.144
  4  0.009  0.001  0.132  0.001  0.000  0.000  0.000  0.000  0.000  0.144
tot  0.050  0.003  0.292  0.003  0.068  0.194  0.134  0.194  0.000  0.938
 
band  12 # energy    1.36385604 # occ.  1.00000000
 
ion      s     py     pz     px    dxy    dyz    dz2    dxz    dx2    tot
  1  0.062  0.000  0.000  0.000  0.340  0.017  0.003  0.017  0.000  0.440
  2  0.021  0.000  0.002  0.000  0.087  0.029  0.032  0.029  0.000  0.201
  3  0.011  0.059  0.022  0.059  0.000  0.000  0.000  0.000  0.000  0.151
  4  0.011  0.059  0.022  0.059  0.000  0.000  0.000  0.000  0.000  0.151
tot  0.106  0.118  0.046  0.118  0.426  0.046  0.035  0.046  0.000  0.943
 
band  13 # energy    1.96682955 # occ.  1.00000000
 
ion      s     py     pz     px    dxy    dyz    dz2    dxz    dx2    tot
  1  0.000  0.008  0.000  0.008  0.000  0.042  0.000  0.042  0.121  0.220
  2  0.000  0.010  0.000  0.010  0.000  0.035  0.000  0.035  0.013  0.103
  3  0.000  0.157  0.000  0.157  0.000  0.000  0.000  0.000  0.000  0.313
  4  0.000  0.157  0.000  0.157  0.000  0.000  0.000  0.000  0.000  0.313
tot  0.000  0.331  0.000  0.331  0.000  0.077  0.000  0.077  0.134  0.949
 
band  14 # energy    2.18872315 # occ.  1.00000000
 
ion      s     py     pz     px    dxy    dyz    dz2    dxz    dx2    tot
  1  0.001  0.011  0.000  0.011  0.020  0.098  0.030  0.098  0.000  0.270
  2  0.014  0.011  0.005  0.011  0.015  0.007  0.025  0.007  0.000  0.095
  3  0.001  0.130  0.030  0.130  0.000  0.000  0.000  0.000  0.000  0.291
  4  0.001  0.130  0.030  0.130  0.000  0.000  0.000  0.000  0.000  0.291
tot  0.017  0.282  0.066  0.282  0.035  0.105  0.055  0.105  0.000  0.946
 
band  15 # energy    2.80553616 # occ.  1.00000000
 
ion      s     py     pz     px    dxy    dyz    dz2    dxz    dx2    tot
  1  0.003  0.001  0.035  0.001  0.004  0.040  0.006  0.040  0.000  0.132
  2  0.000  0.001  0.010  0.001  0.011  0.023  0.092  0.023  0.000  0.161
  3  0.004  0.025  0.274  0.025  0.000  0.000  0.000  0.000  0.000  0.327
  4  0.004  0.025  0.274  0.025  0.000  0.000  0.000  0.000  0.000  0.327
tot  0.011  0.052  0.593  0.052  0.014  0.064  0.098  0.064  0.000  0.947
 
band  16 # energy    3.06951675 # occ.  1.00000000
 
ion      s     py     pz     px    dxy    dyz    dz2    dxz    dx2    tot
  1  0.000  0.008  0.000  0.008  0.000  0.024  0.000  0.024  0.080  0.143
  2  0.000  0.005  0.000  0.005  0.000  0.002  0.000  0.002  0.154  0.166
  3  0.000  0.161  0.000  0.161  0.000  0.000  0.000  0.000  0.000  0.322
  4  0.000  0.161  0.000  0.161  0.000  0.000  0.000  0.000  0.000  0.322
tot  0.000  0.335  0.000  0.335  0.000  0.025  0.000  0.025  0.233  0.954
 
band  17 # energy    7.19134787 # occ.  0.00000000
 
ion      s     py     pz     px    dxy    dyz    dz2    dxz    dx2    tot
  1  0.000  0.001  0.000  0.001  0.000  0.000  0.812  0.000  0.000  0.816
  2  0.030  0.001  0.008  0.001  0.000  0.000  0.001  0.000  0.000  0.042
  3  0.021  0.005  0.014  0.005  0.000  0.000  0.000  0.000  0.000  0.046
  4  0.021  0.005  0.014  0.005  0.000  0.000  0.000  0.000  0.000  0.046
tot  0.073  0.013  0.037  0.013  0.001  0.001  0.813  0.001  0.000  0.951
 
band  18 # energy    7.65139710 # occ.  0.00000000
 
ion      s     py     pz     px    dxy    dyz    dz2    dxz    dx2    tot
  1  0.000  0.000  0.000  0.000  0.000  0.000  0.000  0.000  0.782  0.782
  2  0.000  0.003  0.000  0.003  0.000  0.000  0.000  0.000  0.014  0.020
  3  0.000  0.044  0.000  0.044  0.000  0.000  0.000  0.000  0.000  0.089
  4  0.000  0.044  0.000  0.044  0.000  0.000  0.000  0.000  0.000  0.089
tot  0.000  0.091  0.000  0.091  0.000  0.000  0.000  0.000  0.796  0.979
 
band  19 # energy   10.88961999 # occ.  0.00000000
 
ion      s     py     pz     px    dxy    dyz    dz2    dxz    dx2    tot
  1  0.094  0.030  0.008  0.030  0.000  0.001  0.015  0.001  0.000  0.179
  2  0.070  0.036  0.006  0.036  0.000  0.001  0.005  0.001  0.000  0.154
  3  0.071  0.061  0.001  0.061  0.000  0.000  0.000  0.000  0.000  0.194
  4  0.071  0.061  0.001  0.061  0.000  0.000  0.000  0.000  0.000  0.194
tot  0.306  0.188  0.015  0.188  0.001  0.002  0.021  0.002  0.000  0.721
 
band  20 # energy   11.93685637 # occ.  0.00000000
 
ion      s     py     pz     px    dxy    dyz    dz2    dxz    dx2    tot
  1  0.158  0.007  0.003  0.007  0.001  0.000  0.043  0.000  0.000  0.220
  2  0.168  0.005  0.003  0.005  0.001  0.000  0.019  0.000  0.000  0.200
  3  0.042  0.004  0.138  0.004  0.000  0.000  0.000  0.000  0.000  0.187
  4  0.042  0.004  0.138  0.004  0.000  0.000  0.000  0.000  0.000  0.187
tot  0.409  0.020  0.282  0.020  0.001  0.000  0.061  0.000  0.000  0.795
 

 k-point   12 :   -0.25000000 0.50000000 0.25000000     weight = 0.09375000

band   1 # energy  -13.02140376 # occ.  1.00000000
 
ion      s     py     pz     px    dxy    dyz    dz2    dxz    dx2    tot
  1  0.009  0.000  0.011  0.011  0.000  0.000  0.002  0.000  0.005  0.037
  2  0.000  0.010  0.000  0.000  0.000  0.000  0.033  0.000  0.011  0.054
  3  0.429  0.000  0.000  0.000  0.000  0.000  0.000  0.000  0.000  0.429
  4  0.429  0.000  0.000  0.000  0.000  0.000  0.000  0.000  0.000  0.429
tot  0.867  0.010  0.011  0.011  0.000  0.000  0.034  0.000  0.016  0.950
 
band   2 # energy  -12.89719426 # occ.  1.00000000
 
ion      s     py     pz     px    dxy    dyz    dz2    dxz    dx2    tot
  1  0.000  0.010  0.000  0.000  0.000  0.000  0.015  0.000  0.005  0.030
  2  0.009  0.000  0.012  0.012  0.000  0.000  0.004  0.000  0.011  0.048
  3  0.434  0.000  0.000  0.000  0.000  0.000  0.000  0.000  0.000  0.435
  4  0.434  0.000  0.000  0.000  0.000  0.000  0.000  0.000  0.000  0.435
tot  0.878  0.010  0.012  0.012  0.000  0.000  0.018  0.000  0.016  0.947
 
band   3 # energy   -2.75649700 # occ.  1.00000000
 
ion      s     py     pz     px    dxy    dyz    dz2    dxz    dx2    tot
  1  0.031  0.000  0.013  0.013  0.005  0.005  0.000  0.024  0.000  0.090
  2  0.000  0.001  0.010  0.010  0.041  0.041  0.332  0.000  0.111  0.545
  3  0.002  0.011  0.062  0.062  0.000  0.000  0.000  0.000  0.000  0.136
  4  0.002  0.011  0.062  0.062  0.000  0.000  0.000  0.000  0.000  0.136
tot  0.034  0.023  0.147  0.147  0.046  0.046  0.332  0.024  0.111  0.908
 
band   4 # energy   -2.71691029 # occ.  1.00000000
 
ion      s     py     pz     px    dxy    dyz    dz2    dxz    dx2    tot
  1  0.000  0.001  0.011  0.011  0.004  0.004  0.000  0.000  0.000  0.032
  2  0.018  0.000  0.003  0.003  0.001  0.001  0.145  0.080  0.435  0.685
  3  0.000  0.013  0.048  0.048  0.000  0.000  0.000  0.000  0.000  0.109
  4  0.000  0.013  0.048  0.048  0.000  0.000  0.000  0.000  0.000  0.109
tot  0.019  0.027  0.110  0.110  0.005  0.005  0.145  0.080  0.435  0.936
 
band   5 # energy   -2.38300712 # occ.  1.00000000
 
ion      s     py     pz     px    dxy    dyz    dz2    dxz    dx2    tot
  1  0.040  0.000  0.002  0.002  0.018  0.018  0.000  0.028  0.000  0.108
  2  0.000  0.009  0.006  0.006  0.158  0.158  0.161  0.000  0.054  0.553
  3  0.005  0.034  0.039  0.039  0.000  0.000  0.000  0.000  0.000  0.118
  4  0.005  0.034  0.039  0.039  0.000  0.000  0.000  0.000  0.000  0.118
tot  0.051  0.077  0.087  0.087  0.176  0.176  0.161  0.028  0.054  0.897
 
band   6 # energy   -2.26720616 # occ.  1.00000000
 
ion      s     py     pz     px    dxy    dyz    dz2    dxz    dx2    tot
  1  0.000  0.015  0.009  0.009  0.099  0.099  0.001  0.000  0.000  0.234
  2  0.068  0.000  0.000  0.000  0.008  0.008  0.040  0.088  0.120  0.332
  3  0.004  0.090  0.030  0.030  0.000  0.000  0.000  0.000  0.000  0.153
  4  0.004  0.090  0.030  0.030  0.000  0.000  0.000  0.000  0.000  0.153
tot  0.075  0.196  0.069  0.069  0.107  0.107  0.041  0.088  0.120  0.873
 
band   7 # energy   -1.26604636 # occ.  1.00000000
 
ion      s     py     pz     px    dxy    dyz    dz2    dxz    dx2    tot
  1  0.000  0.000  0.001  0.001  0.011  0.011  0.014  0.000  0.005  0.042
  2  0.001  0.000  0.010  0.010  0.353  0.353  0.008  0.010  0.025  0.770
  3  0.002  0.001  0.029  0.029  0.000  0.000  0.000  0.000  0.000  0.060
  4  0.002  0.001  0.029  0.029  0.000  0.000  0.000  0.000  0.000  0.060
tot  0.004  0.001  0.068  0.068  0.364  0.364  0.022  0.010  0.029  0.931
 
band   8 # energy   -0.51274378 # occ.  1.00000000
 
ion      s     py     pz     px    dxy    dyz    dz2    dxz    dx2    tot
  1  0.017  0.000  0.002  0.002  0.045  0.045  0.006  0.206  0.018  0.342
  2  0.000  0.003  0.011  0.011  0.135  0.135  0.057  0.000  0.019  0.371
  3  0.005  0.009  0.046  0.046  0.000  0.000  0.000  0.000  0.000  0.107
  4  0.005  0.009  0.046  0.046  0.000  0.000  0.000  0.000  0.000  0.107
tot  0.026  0.022  0.106  0.106  0.181  0.181  0.063  0.206  0.037  0.926
 
band   9 # energy   -0.24058633 # occ.  1.00000000
 
ion      s     py     pz     px    dxy    dyz    dz2    dxz    dx2    tot
  1  0.000  0.003  0.000  0.000  0.080  0.080  0.001  0.000  0.000  0.165
  2  0.006  0.000  0.001  0.001  0.009  0.009  0.009  0.706  0.028  0.771
  3  0.000  0.011  0.005  0.005  0.000  0.000  0.000  0.000  0.000  0.021
  4  0.000  0.011  0.005  0.005  0.000  0.000  0.000  0.000  0.000  0.021
tot  0.006  0.024  0.012  0.012  0.089  0.089  0.011  0.706  0.028  0.977
 
band  10 # energy    0.35217892 # occ.  1.00000000
 
ion      s     py     pz     px    dxy    dyz    dz2    dxz    dx2    tot
  1  0.000  0.000  0.002  0.002  0.354  0.354  0.001  0.078  0.003  0.794
  2  0.000  0.001  0.001  0.001  0.033  0.033  0.044  0.000  0.015  0.127
  3  0.002  0.009  0.007  0.007  0.000  0.000  0.000  0.000  0.000  0.024
  4  0.002  0.009  0.007  0.007  0.000  0.000  0.000  0.000  0.000  0.024
tot  0.003  0.019  0.016  0.016  0.387  0.387  0.045  0.078  0.018  0.969
 
band  11 # energy    0.85561303 # occ.  1.00000000
 
ion      s     py     pz     px    dxy    dyz    dz2    dxz    dx2    tot
  1  0.000  0.001  0.003  0.003  0.060  0.060  0.056  0.000  0.019  0.202
  2  0.001  0.000  0.026  0.026  0.114  0.114  0.005  0.023  0.014  0.321
  3  0.001  0.002  0.102  0.102  0.000  0.000  0.000  0.000  0.000  0.207
  4  0.001  0.002  0.102  0.102  0.000  0.000  0.000  0.000  0.000  0.207
tot  0.003  0.006  0.232  0.232  0.173  0.173  0.061  0.023  0.033  0.937
 
band  12 # energy    1.21528078 # occ.  1.00000000
 
ion      s     py     pz     px    dxy    dyz    dz2    dxz    dx2    tot
  1  0.051  0.000  0.000  0.000  0.004  0.004  0.010  0.157  0.031  0.258
  2  0.000  0.027  0.000  0.000  0.121  0.121  0.000  0.000  0.000  0.269
  3  0.000  0.203  0.004  0.004  0.000  0.000  0.000  0.000  0.000  0.211
  4  0.000  0.203  0.004  0.004  0.000  0.000  0.000  0.000  0.000  0.211
tot  0.052  0.432  0.008  0.008  0.125  0.125  0.010  0.157  0.031  0.949
 
band  13 # energy    1.44533997 # occ.  1.00000000
 
ion      s     py     pz     px    dxy    dyz    dz2    dxz    dx2    tot
  1  0.000  0.002  0.005  0.005  0.212  0.212  0.019  0.000  0.006  0.460
  2  0.056  0.000  0.004  0.004  0.001  0.001  0.001  0.068  0.003  0.138
  3  0.001  0.026  0.076  0.076  0.000  0.000  0.000  0.000  0.000  0.178
  4  0.001  0.026  0.076  0.076  0.000  0.000  0.000  0.000  0.000  0.178
tot  0.057  0.053  0.160  0.160  0.213  0.213  0.020  0.068  0.009  0.953
 
band  14 # energy    1.51692983 # occ.  1.00000000
 
ion      s     py     pz     px    dxy    dyz    dz2    dxz    dx2    tot
  1  0.002  0.000  0.003  0.003  0.013  0.013  0.016  0.488  0.049  0.588
  2  0.000  0.011  0.009  0.009  0.001  0.001  0.011  0.000  0.004  0.045
  3  0.001  0.075  0.044  0.044  0.000  0.000  0.000  0.000  0.000  0.165
  4  0.001  0.075  0.044  0.044  0.000  0.000  0.000  0.000  0.000  0.165
tot  0.004  0.161  0.101  0.101  0.013  0.013  0.028  0.488  0.053  0.962
 
band  15 # energy    2.64400462 # occ.  1.00000000
 
ion      s     py     pz     px    dxy    dyz    dz2    dxz    dx2    tot
  1  0.005  0.000  0.029  0.029  0.046  0.046  0.002  0.012  0.007  0.175
  2  0.000  0.001  0.000  0.000  0.000  0.000  0.141  0.000  0.047  0.189
  3  0.006  0.004  0.139  0.139  0.000  0.000  0.000  0.000  0.000  0.287
  4  0.006  0.004  0.139  0.139  0.000  0.000  0.000  0.000  0.000  0.287
tot  0.016  0.009  0.306  0.306  0.046  0.046  0.143  0.012  0.054  0.939
 
band  16 # energy    2.86907991 # occ.  1.00000000
 
ion      s     py     pz     px    dxy    dyz    dz2    dxz    dx2    tot
  1  0.000  0.037  0.008  0.008  0.020  0.020  0.003  0.000  0.001  0.099
  2  0.002  0.000  0.000  0.000  0.001  0.001  0.046  0.017  0.138  0.205
  3  0.002  0.236  0.041  0.041  0.000  0.000  0.000  0.000  0.000  0.319
  4  0.002  0.236  0.041  0.041  0.000  0.000  0.000  0.000  0.000  0.319
tot  0.006  0.509  0.090  0.090  0.021  0.021  0.049  0.017  0.139  0.943
 
band  17 # energy    7.54510264 # occ.  0.00000000
 
ion      s     py     pz     px    dxy    dyz    dz2    dxz    dx2    tot
  1  0.000  0.000  0.000  0.000  0.000  0.000  0.211  0.001  0.634  0.847
  2  0.000  0.013  0.003  0.003  0.000  0.000  0.000  0.000  0.000  0.019
  3  0.005  0.035  0.007  0.007  0.000  0.000  0.000  0.000  0.000  0.054
  4  0.005  0.035  0.007  0.007  0.000  0.000  0.000  0.000  0.000  0.054
tot  0.010  0.083  0.016  0.016  0.000  0.000  0.211  0.001  0.634  0.973
 
band  18 # energy    7.56647121 # occ.  0.00000000
 
ion      s     py     pz     px    dxy    dyz    dz2    dxz    dx2    tot
  1  0.000  0.000  0.000  0.000  0.000  0.000  0.635  0.000  0.212  0.847
  2  0.000  0.000  0.011  0.011  0.001  0.001  0.000  0.000  0.000  0.023
  3  0.015  0.000  0.017  0.017  0.000  0.000  0.000  0.000  0.000  0.049
  4  0.015  0.000  0.017  0.017  0.000  0.000  0.000  0.000  0.000  0.049
tot  0.031  0.000  0.045  0.045  0.001  0.001  0.635  0.000  0.212  0.969
 
band  19 # energy   12.77065911 # occ.  0.00000000
 
ion      s     py     pz     px    dxy    dyz    dz2    dxz    dx2    tot
  1  0.000  0.058  0.006  0.006  0.003  0.003  0.012  0.000  0.004  0.092
  2  0.306  0.000  0.025  0.025  0.006  0.006  0.001  0.001  0.002  0.372
  3  0.030  0.007  0.046  0.046  0.000  0.000  0.000  0.000  0.000  0.128
  4  0.030  0.007  0.046  0.046  0.000  0.000  0.000  0.000  0.000  0.128
tot  0.367  0.071  0.123  0.123  0.009  0.009  0.013  0.001  0.006  0.721
 
band  20 # energy   12.87921733 # occ.  0.00000000
 
ion      s     py     pz     px    dxy    dyz    dz2    dxz    dx2    tot
  1  0.271  0.000  0.033  0.033  0.008  0.008  0.001  0.001  0.004  0.358
  2  0.000  0.063  0.006  0.006  0.003  0.003  0.007  0.000  0.002  0.090
  3  0.035  0.003  0.043  0.043  0.000  0.000  0.000  0.000  0.000  0.125
  4  0.035  0.003  0.043  0.043  0.000  0.000  0.000  0.000  0.000  0.125
tot  0.342  0.068  0.125  0.125  0.011  0.011  0.009  0.001  0.007  0.699
 

 k-point   13 :    0.50000000 0.50000000 0.50000000     weight = 0.01562500

band   1 # energy  -13.78240841 # occ.  1.00000000
 
ion      s     py     pz     px    dxy    dyz    dz2    dxz    dx2    tot
  1  0.000  0.010  0.010  0.010  0.000  0.000  0.000  0.000  0.000  0.029
  2  0.077  0.000  0.000  0.000  0.000  0.000  0.000  0.000  0.000  0.077
  3  0.403  0.000  0.000  0.000  0.000  0.000  0.000  0.000  0.000  0.404
  4  0.403  0.000  0.000  0.000  0.000  0.000  0.000  0.000  0.000  0.404
tot  0.882  0.011  0.011  0.011  0.000  0.000  0.000  0.000  0.000  0.914
 
band   2 # energy  -13.76104319 # occ.  1.00000000
 
ion      s     py     pz     px    dxy    dyz    dz2    dxz    dx2    tot
  1  0.075  0.000  0.000  0.000  0.000  0.000  0.000  0.000  0.000  0.075
  2  0.000  0.010  0.010  0.010  0.000  0.000  0.000  0.000  0.000  0.030
  3  0.404  0.000  0.000  0.000  0.000  0.000  0.000  0.000  0.000  0.405
  4  0.404  0.000  0.000  0.000  0.000  0.000  0.000  0.000  0.000  0.405
tot  0.883  0.011  0.011  0.011  0.000  0.000  0.000  0.000  0.000  0.915
 
band   3 # energy   -2.67733662 # occ.  1.00000000
 
ion      s     py     pz     px    dxy    dyz    dz2    dxz    dx2    tot
  1  0.000  0.000  0.000  0.000  0.000  0.000  0.000  0.000  0.000  0.001
  2  0.000  0.000  0.000  0.000  0.015  0.016  0.574  0.001  0.240  0.847
  3  0.000  0.003  0.029  0.030  0.000  0.000  0.000  0.000  0.000  0.062
  4  0.000  0.003  0.029  0.030  0.000  0.000  0.000  0.000  0.000  0.062
tot  0.000  0.005  0.059  0.061  0.015  0.016  0.574  0.001  0.240  0.973
 
band   4 # energy   -2.67733661 # occ.  1.00000000
 
ion      s     py     pz     px    dxy    dyz    dz2    dxz    dx2    tot
  1  0.000  0.001  0.000  0.000  0.000  0.000  0.000  0.000  0.000  0.001
  2  0.000  0.000  0.000  0.000  0.006  0.006  0.240  0.020  0.574  0.847
  3  0.000  0.039  0.012  0.011  0.000  0.000  0.000  0.000  0.000  0.062
  4  0.000  0.039  0.012  0.011  0.000  0.000  0.000  0.000  0.000  0.062
tot  0.000  0.078  0.025  0.023  0.006  0.006  0.240  0.020  0.574  0.973
 
band   5 # energy   -2.09046013 # occ.  1.00000000
 
ion      s     py     pz     px    dxy    dyz    dz2    dxz    dx2    tot
  1  0.000  0.003  0.003  0.003  0.000  0.000  0.000  0.000  0.000  0.009
  2  0.048  0.000  0.000  0.000  0.210  0.210  0.000  0.210  0.000  0.678
  3  0.008  0.033  0.033  0.033  0.000  0.000  0.000  0.000  0.000  0.105
  4  0.008  0.033  0.033  0.033  0.000  0.000  0.000  0.000  0.000  0.105
tot  0.063  0.068  0.068  0.068  0.210  0.210  0.000  0.210  0.000  0.897
 
band   6 # energy   -1.49248490 # occ.  1.00000000
 
ion      s     py     pz     px    dxy    dyz    dz2    dxz    dx2    tot
  1  0.074  0.000  0.000  0.000  0.155  0.155  0.000  0.155  0.000  0.539
  2  0.000  0.004  0.004  0.004  0.000  0.000  0.000  0.000  0.000  0.011
  3  0.011  0.051  0.051  0.051  0.000  0.000  0.000  0.000  0.000  0.162
  4  0.011  0.051  0.051  0.051  0.000  0.000  0.000  0.000  0.000  0.162
tot  0.096  0.105  0.105  0.105  0.155  0.155  0.000  0.155  0.000  0.875
 
band   7 # energy   -0.87903748 # occ.  1.00000000
 
ion      s     py     pz     px    dxy    dyz    dz2    dxz    dx2    tot
  1  0.000  0.000  0.000  0.000  0.000  0.000  0.000  0.000  0.000  0.001
  2  0.000  0.000  0.000  0.000  0.225  0.116  0.018  0.576  0.032  0.967
  3  0.000  0.001  0.000  0.000  0.000  0.000  0.000  0.000  0.000  0.001
  4  0.000  0.001  0.000  0.000  0.000  0.000  0.000  0.000  0.000  0.001
tot  0.000  0.002  0.001  0.000  0.225  0.116  0.018  0.576  0.032  0.969
 
band   8 # energy   -0.87903747 # occ.  1.00000000
 
ion      s     py     pz     px    dxy    dyz    dz2    dxz    dx2    tot
  1  0.000  0.000  0.000  0.000  0.000  0.000  0.000  0.000  0.000  0.001
  2  0.000  0.000  0.000  0.000  0.386  0.495  0.032  0.035  0.018  0.967
  3  0.000  0.000  0.000  0.001  0.000  0.000  0.000  0.000  0.000  0.001
  4  0.000  0.000  0.000  0.001  0.000  0.000  0.000  0.000  0.000  0.001
tot  0.000  0.000  0.001  0.002  0.386  0.495  0.032  0.035  0.018  0.969
 
band   9 # energy    0.02029324 # occ.  1.00000000
 
ion      s     py     pz     px    dxy    dyz    dz2    dxz    dx2    tot
  1  0.000  0.000  0.000  0.000  0.024  0.436  0.001  0.375  0.019  0.854
  2  0.000  0.002  0.000  0.002  0.000  0.000  0.000  0.000  0.000  0.004
  3  0.000  0.022  0.001  0.025  0.000  0.000  0.000  0.000  0.000  0.048
  4  0.000  0.022  0.001  0.025  0.000  0.000  0.000  0.000  0.000  0.048
tot  0.000  0.045  0.003  0.052  0.024  0.436  0.001  0.375  0.019  0.954
 
band  10 # energy    0.02029324 # occ.  1.00000000
 
ion      s     py     pz     px    dxy    dyz    dz2    dxz    dx2    tot
  1  0.000  0.000  0.000  0.000  0.532  0.121  0.019  0.182  0.001  0.854
  2  0.000  0.001  0.002  0.001  0.000  0.000  0.000  0.000  0.000  0.004
  3  0.000  0.010  0.031  0.007  0.000  0.000  0.000  0.000  0.000  0.048
  4  0.000  0.010  0.031  0.007  0.000  0.000  0.000  0.000  0.000  0.048
tot  0.000  0.022  0.064  0.014  0.532  0.121  0.019  0.182  0.001  0.954
 
band  11 # energy    1.05121568 # occ.  1.00000000
 
ion      s     py     pz     px    dxy    dyz    dz2    dxz    dx2    tot
  1  0.000  0.001  0.001  0.001  0.000  0.000  0.000  0.000  0.000  0.004
  2  0.116  0.000  0.000  0.000  0.114  0.114  0.000  0.114  0.000  0.458
  3  0.019  0.069  0.069  0.069  0.000  0.000  0.000  0.000  0.000  0.227
  4  0.019  0.069  0.069  0.069  0.000  0.000  0.000  0.000  0.000  0.227
tot  0.154  0.140  0.140  0.140  0.114  0.114  0.000  0.114  0.000  0.916
 
band  12 # energy    1.61247643 # occ.  1.00000000
 
ion      s     py     pz     px    dxy    dyz    dz2    dxz    dx2    tot
  1  0.088  0.000  0.000  0.000  0.167  0.167  0.000  0.167  0.000  0.589
  2  0.000  0.001  0.001  0.001  0.000  0.000  0.000  0.000  0.000  0.002
  3  0.014  0.053  0.053  0.053  0.000  0.000  0.000  0.000  0.000  0.172
  4  0.014  0.053  0.053  0.053  0.000  0.000  0.000  0.000  0.000  0.172
tot  0.115  0.106  0.106  0.106  0.167  0.167  0.000  0.167  0.000  0.934
 
band  13 # energy    2.10233952 # occ.  1.00000000
 
ion      s     py     pz     px    dxy    dyz    dz2    dxz    dx2    tot
  1  0.000  0.000  0.000  0.000  0.005  0.069  0.009  0.062  0.171  0.316
  2  0.000  0.005  0.000  0.005  0.000  0.000  0.000  0.000  0.000  0.011
  3  0.000  0.143  0.011  0.160  0.000  0.000  0.000  0.000  0.000  0.313
  4  0.000  0.143  0.011  0.160  0.000  0.000  0.000  0.000  0.000  0.313
tot  0.000  0.290  0.022  0.325  0.005  0.069  0.009  0.062  0.171  0.953
 
band  14 # energy    2.10233952 # occ.  1.00000000
 
ion      s     py     pz     px    dxy    dyz    dz2    dxz    dx2    tot
  1  0.000  0.000  0.000  0.000  0.086  0.021  0.171  0.029  0.009  0.316
  2  0.000  0.002  0.007  0.002  0.000  0.000  0.000  0.000  0.000  0.011
  3  0.000  0.066  0.198  0.049  0.000  0.000  0.000  0.000  0.000  0.313
  4  0.000  0.066  0.198  0.049  0.000  0.000  0.000  0.000  0.000  0.313
tot  0.000  0.135  0.403  0.099  0.086  0.021  0.171  0.029  0.009  0.953
 
band  15 # energy    3.55326027 # occ.  1.00000000
 
ion      s     py     pz     px    dxy    dyz    dz2    dxz    dx2    tot
  1  0.000  0.001  0.011  0.009  0.000  0.000  0.000  0.000  0.000  0.020
  2  0.000  0.000  0.000  0.000  0.013  0.010  0.128  0.001  0.032  0.184
  3  0.000  0.017  0.200  0.159  0.000  0.000  0.000  0.000  0.000  0.376
  4  0.000  0.017  0.200  0.159  0.000  0.000  0.000  0.000  0.000  0.376
tot  0.000  0.035  0.411  0.327  0.013  0.010  0.128  0.001  0.032  0.956
 
band  16 # energy    3.55326027 # occ.  1.00000000
 
ion      s     py     pz     px    dxy    dyz    dz2    dxz    dx2    tot
  1  0.000  0.013  0.003  0.005  0.000  0.000  0.000  0.000  0.000  0.020
  2  0.000  0.000  0.000  0.000  0.003  0.006  0.032  0.015  0.128  0.184
  3  0.000  0.234  0.051  0.092  0.000  0.000  0.000  0.000  0.000  0.376
  4  0.000  0.234  0.051  0.092  0.000  0.000  0.000  0.000  0.000  0.376
tot  0.000  0.480  0.104  0.188  0.003  0.006  0.032  0.015  0.128  0.956
 
band  17 # energy    7.46737867 # occ.  0.00000000
 
ion      s     py     pz     px    dxy    dyz    dz2    dxz    dx2    tot
  1  0.000  0.000  0.000  0.000  0.000  0.001  0.147  0.001  0.640  0.789
  2  0.000  0.005  0.002  0.006  0.000  0.000  0.000  0.000  0.000  0.013
  3  0.000  0.034  0.010  0.040  0.000  0.000  0.000  0.000  0.000  0.084
  4  0.000  0.034  0.010  0.040  0.000  0.000  0.000  0.000  0.000  0.084
tot  0.000  0.072  0.023  0.086  0.000  0.001  0.147  0.001  0.640  0.970
 
band  18 # energy    7.46737867 # occ.  0.00000000
 
ion      s     py     pz     px    dxy    dyz    dz2    dxz    dx2    tot
  1  0.000  0.000  0.000  0.000  0.001  0.000  0.640  0.000  0.147  0.789
  2  0.000  0.004  0.007  0.003  0.000  0.000  0.000  0.000  0.000  0.013
  3  0.000  0.022  0.045  0.016  0.000  0.000  0.000  0.000  0.000  0.084
  4  0.000  0.022  0.045  0.016  0.000  0.000  0.000  0.000  0.000  0.084
tot  0.000  0.048  0.098  0.035  0.001  0.000  0.640  0.000  0.147  0.970
 
band  19 # energy    9.70884117 # occ.  0.00000000
 
ion      s     py     pz     px    dxy    dyz    dz2    dxz    dx2    tot
  1  0.000  0.038  0.038  0.038  0.000  0.000  0.000  0.000  0.000  0.113
  2  0.218  0.000  0.000  0.000  0.002  0.002  0.000  0.002  0.000  0.225
  3  0.089  0.035  0.035  0.035  0.000  0.000  0.000  0.000  0.000  0.194
  4  0.089  0.035  0.035  0.035  0.000  0.000  0.000  0.000  0.000  0.194
tot  0.395  0.108  0.108  0.108  0.002  0.002  0.000  0.002  0.000  0.726
 
band  20 # energy    9.81630684 # occ.  0.00000000
 
ion      s     py     pz     px    dxy    dyz    dz2    dxz    dx2    tot
  1  0.212  0.000  0.000  0.000  0.003  0.003  0.000  0.003  0.000  0.220
  2  0.000  0.040  0.040  0.040  0.000  0.000  0.000  0.000  0.000  0.120
  3  0.090  0.034  0.034  0.034  0.000  0.000  0.000  0.000  0.000  0.191
  4  0.090  0.034  0.034  0.034  0.000  0.000  0.000  0.000  0.000  0.191
tot  0.391  0.107  0.107  0.107  0.003  0.003  0.000  0.003  0.000  0.721
 
