unknown system                          
           1
     6.350160    0.000000    0.000000
     0.000000    6.350160    0.000000
     0.000000    0.000000    6.350160
   O    H 
   1   2
Direct configuration=     1
   0.00000000  0.00000000  0.00000000
   0.09166667  0.88083333  0.00000000
   0.09166667  0.11916667  0.00000000
Direct configuration=     2
   0.00010502  0.00064176  0.00000000
   0.09600896  0.87840078  0.00000000
   0.08840986  0.12405096  0.00000000
Direct configuration=     3
   0.00020886  0.00126187  0.00000000
   0.10023164  0.87622233  0.00000000
   0.08529696  0.12902389  0.00000000
Direct configuration=     4
   0.00033160  0.00184853  0.00000000
   0.10408281  0.87470134  0.00000000
   0.08225251  0.13387338  0.00000000
